
     Program PWSCF v.7.5 starts on 30Aug2026 at 12:48:28 

     This program is part of the open-source Quantum ESPRESSO suite
     for quantum simulation of materials; please cite
         "P. Giannozzi et al., J. Phys.:Condens. Matter 21 395502 (2009);
         "P. Giannozzi et al., J. Phys.:Condens. Matter 29 465901 (2017);
         "P. Giannozzi et al., J. Chem. Phys. 152 154105 (2020);
          URL http://www.quantum-espresso.org", 
     in publications or presentations arising from this work. More details at
     http://www.quantum-espresso.org/quote

     Parallel version (MPI), running on     4 processors

     MPI processes distributed on     1 nodes
     0 MiB available memory on the printing compute node when the environment starts

     Reading input from LiCoPO4_final_scf.in
Warning: card NEW UNIT-CELL VOLUME =   2324.16947 A.U.^3 (   344.40638 ANG^3 ) ignored
Warning: card      DENSITY =      3.10204 G/CM^3 ignored

     Current dimensions of program PWSCF are:
     Max number of different atomic species (ntypx) = 10
     Max number of k-points (npk) =  40000
     Max angular momentum in pseudopotentials (lmaxx) =  4
     file O.paw.pbe.z_6.ld1.psl.v0.1.upf: wavefunction(s)  2P renormalized

     R & G space division:  proc/nbgrp/npool/nimage =       4
     Subspace diagonalization in iterative solution of the eigenvalue problem:
     a serial algorithm will be used


     Parallelization info
     --------------------
     sticks:   dense  smooth     PW     G-vecs:    dense   smooth      PW
     Min        1954    1015    272               123107    45963    6379
     Max        1955    1016    273               123108    45964    6380
     Sum        7819    4061   1091               492431   183855   25517

     Using Slab Decomposition



     bravais-lattice index     =            0
     lattice parameter (alat)  =       9.4807  a.u.
     unit-cell volume          =    2324.1695 (a.u.)^3
     number of atoms/cell      =           28
     number of atomic types    =            4
     number of electrons       =       196.00
     number of Kohn-Sham states=          118
     kinetic-energy cutoff     =      70.0000  Ry
     charge density cutoff     =     540.0000  Ry
     scf convergence threshold =      1.0E-08
     mixing beta               =       0.3000
     number of iterations used =            8  plain     mixing
     Exchange-correlation= SLA  PW   PBX  PBC
                           (   1   4   3   4   0   0   0)

     celldm(1)=   9.480672  celldm(2)=   0.000000  celldm(3)=   0.000000
     celldm(4)=   0.000000  celldm(5)=   0.000000  celldm(6)=   0.000000

     crystal axes: (cart. coord. in units of alat)
               a(1) = (   1.000000   0.000015  -0.000016 )  
               a(2) = (   0.000016   2.025148   0.000054 )  
               a(3) = (  -0.000025  -0.000042   1.346770 )  

     reciprocal axes: (cart. coord. in units 2 pi/alat)
               b(1) = (  1.000000 -0.000008  0.000019 )  
               b(2) = ( -0.000008  0.493791  0.000015 )  
               b(3) = (  0.000012 -0.000020  0.742517 )  


     PseudoPot. # 1 for Li read from file:
     /Users/qiqi/battery/dft/pseudo/Li.us.pbe.z_3.uspp.gbrv.v1.4.upf
     MD5 check sum: ab40f926ca6decaa01295ae7eb5ebb1a
     Pseudo is Ultrasoft, Zval =  3.0
     
     Using radial grid of  751 points,  5 beta functions with: 
                l(1) =   0
                l(2) =   0
                l(3) =   0
                l(4) =   1
                l(5) =   1
     Q(r) pseudized with 0 coefficients 


     PseudoPot. # 2 for Co read from file:
     /Users/qiqi/battery/dft/pseudo/Co.nc.pbe.z_17.oncvpsp4.spms.v1.upf
     MD5 check sum: 3ac903b308c672f8bf9f4cd16543a038
     Pseudo is Norm-conserving + core correction, Zval = 17.0
     Generated using ONCVPSP code by D. R. Hamann
     Using radial grid of 1394 points,  6 beta functions with: 
                l(1) =   0
                l(2) =   0
                l(3) =   1
                l(4) =   1
                l(5) =   2
                l(6) =   2

     PseudoPot. # 3 for P  read from file:
     /Users/qiqi/battery/dft/pseudo/P.us.pbe.z_5.ld1.psl.v1.0.0-high.upf
     MD5 check sum: 6c1fe66e5fe6a552967721b615186bc2
     Pseudo is Ultrasoft + core correction, Zval =  5.0
     Generated using &quot;atomic&quot; code by A. Dal Corso  v.6.3MaX
     Using radial grid of 1147 points,  6 beta functions with: 
                l(1) =   0
                l(2) =   0
                l(3) =   1
                l(4) =   1
                l(5) =   2
                l(6) =   2
     Q(r) pseudized with 0 coefficients 


     PseudoPot. # 4 for O  read from file:
     /Users/qiqi/battery/dft/pseudo/O.paw.pbe.z_6.ld1.psl.v0.1.upf
     MD5 check sum: a60b4d0ae3a5477449b52f76b61da220
     Pseudo is Projector augmented-wave + core cor, Zval =  6.0
     Generated using &quot;atomic&quot; code by A. Dal Corso  v.6.3MaX
     Shape of augmentation charge: BESSEL
     Using radial grid of 1095 points,  4 beta functions with: 
                l(1) =   0
                l(2) =   0
                l(3) =   1
                l(4) =   1
     Q(r) pseudized with 0 coefficients 


     atomic species   valence    mass     pseudopotential
     Li                3.00     6.94100     Li( 1.00)
     Co               17.00    58.93319     Co( 1.00)
     P                 5.00    30.97376     P ( 1.00)
     O                 6.00    15.99940     O ( 1.00)

     Starting magnetic structure 
     atomic species   magnetization
     Li              0.000
     Co              0.500
     P               0.000
     O               0.000

     No symmetry found


                                    s                        frac. trans.

      isym =  1     identity                                     

 cryst.   s( 1) = (     1          0          0      )
                  (     0          1          0      )
                  (     0          0          1      )

 cart.    s( 1) = (  1.0000000  0.0000000  0.0000000 )
                  ( -0.0000000  1.0000000 -0.0000000 )
                  (  0.0000000 -0.0000000  1.0000000 )


   Cartesian axes

     site n.     atom                  positions (alat units)
         1        Li     tau(   1) = (   0.6874379   0.3131654   0.9601523  )
         2        Li     tau(   2) = (   0.1874343   0.6993929   0.2868384  )
         3        Li     tau(   3) = (   0.3125888   1.7119367   0.2868746  )
         4        Li     tau(   4) = (   0.8125741   1.3257443   0.9602638  )
         5        Co     tau(   5) = (   0.1869756   0.6989961   0.9642262  )
         6        Co     tau(   6) = (   0.6870202   0.3135692   0.2908018  )
         7        Co     tau(   7) = (   0.8130197   1.3261181   0.2908339  )
         8        Co     tau(   8) = (   0.3130121   1.7115487   0.9642320  )
         9        P      tau(   9) = (   0.1855140   0.1934087   1.2960738  )
        10        P      tau(  10) = (   0.6854999   0.8191455   0.6227383  )
        11        P      tau(  11) = (   0.3144459   1.2059142   1.2961116  )
        12        P      tau(  12) = (   0.8144600   1.8317424   0.6227123  )
        13        O      tau(  13) = (   0.1964092   1.3394941   1.0406178  )
        14        O      tau(  14) = (   0.3035073   0.3269126   1.0405589  )
        15        O      tau(  15) = (   0.8035141   0.6856360   0.3672410  )
        16        O      tau(  16) = (   0.6964246   1.6981703   0.3672173  )
        17        O      tau(  17) = (   0.2570946   1.9160095   1.2942051  )
        18        O      tau(  18) = (   0.2429022   0.9034724   1.2942077  )
        19        O      tau(  19) = (   0.7570978   1.1216828   0.6208173  )
        20        O      tau(  20) = (   0.7429096   0.1090376   0.6207568  )
        21        O      tau(  21) = (   0.6972561   1.6989777   0.8788241  )
        22        O      tau(  22) = (   0.1972721   1.3387142   0.2054547  )
        23        O      tau(  23) = (   0.8027137   0.6864369   0.8788275  )
        24        O      tau(  24) = (   0.3027788   0.3261588   0.2053765  )
        25        O      tau(  25) = (   0.1225009   1.7872050   0.6255244  )
        26        O      tau(  26) = (   0.3774784   0.7747346   0.6255507  )
        27        O      tau(  27) = (   0.6224859   1.2504340   1.2988919  )
        28        O      tau(  28) = (   0.8774975   0.2378625   1.2988879  )

   Crystallographic axes

     site n.     atom                  positions (cryst. coord.)
         1        Li     tau(   1) = (  0.6874534  0.1546477  0.7129316  )
         2        Li     tau(   2) = (  0.1874341  0.3453569  0.2129709  )
         3        Li     tau(   3) = (  0.3125805  0.8453409  0.2129793  )
         4        Li     tau(   4) = (  0.8125815  0.6546491  0.7129959  )
         5        Co     tau(   5) = (  0.1869881  0.3451714  0.7159430  )
         6        Co     tau(   6) = (  0.6870232  0.1548369  0.2159273  )
         7        Co     tau(   7) = (  0.8130146  0.6548234  0.2159327  )
         8        Co     tau(   8) = (  0.3130165  0.8451597  0.7159288  )
         9        P      tau(   9) = (  0.1855368  0.0955220  0.9623555  )
        10        P      tau(  10) = (  0.6855050  0.4044910  0.4623859  )
        11        P      tau(  11) = (  0.3144606  0.5954871  0.9623651  )
        12        P      tau(  12) = (  0.8144571  0.9045012  0.4623482  )
        13        O      tau(  13) = (  0.1964181  0.6614446  0.7726526  )
        14        O      tau(  14) = (  0.3035242  0.1614402  0.7726300  )
        15        O      tau(  15) = (  0.8035155  0.3385604  0.2726788  )
        16        O      tau(  16) = (  0.6964179  0.8385415  0.2726400  )
        17        O      tau(  17) = (  0.2571035  0.9461261  0.9609348  )
        18        O      tau(  18) = (  0.2429192  0.4461446  0.9609566  )
        19        O      tau(  19) = (  0.7571005  0.5538806  0.4609544  )
        20        O      tau(  20) = (  0.7429203  0.0538457  0.4609293  )
        21        O      tau(  21) = (  0.6972590  0.8389480  0.6525168  )
        22        O      tau(  22) = (  0.1972653  0.6610466  0.1525296  )
        23        O      tau(  23) = (  0.8027247  0.3389637  0.6525405  )
        24        O      tau(  24) = (  0.3027800  0.1610551  0.1524927  )
        25        O      tau(  25) = (  0.1224984  0.8825143  0.4644288  )
        26        O      tau(  26) = (  0.3774839  0.3825637  0.4644714  )
        27        O      tau(  27) = (  0.6225003  0.6174682  0.9644323  )
        28        O      tau(  28) = (  0.8775200  0.1174676  0.9644524  )

     number of k points=    14  Marzari-Vanderbilt smearing, width (Ry)=  0.0100
                       cart. coord. in units 2pi/alat
        k(    1) = (   0.0000000   0.0000000   0.0000000), wk =   0.0370370
        k(    2) = (   0.0000040  -0.0000066   0.2475057), wk =   0.0740741
        k(    3) = (  -0.0000025   0.1645970   0.0000051), wk =   0.0740741
        k(    4) = (   0.0000014   0.1645904   0.2475109), wk =   0.0740741
        k(    5) = (  -0.0000065   0.1646036  -0.2475006), wk =   0.0740741
        k(    6) = (   0.3333333  -0.0000027   0.0000062), wk =   0.0740741
        k(    7) = (   0.3333373  -0.0000092   0.2475120), wk =   0.0740741
        k(    8) = (   0.3333294   0.0000039  -0.2474995), wk =   0.0740741
        k(    9) = (   0.3333308   0.1645943   0.0000114), wk =   0.0740741
        k(   10) = (   0.3333348   0.1645878   0.2475171), wk =   0.0740741
        k(   11) = (   0.3333268   0.1646009  -0.2474944), wk =   0.0740741
        k(   12) = (   0.3333359  -0.1645996   0.0000011), wk =   0.0740741
        k(   13) = (   0.3333399  -0.1646062   0.2475068), wk =   0.0740741
        k(   14) = (   0.3333319  -0.1645931  -0.2475046), wk =   0.0740741

                       cryst. coord.
        k(    1) = (   0.0000000   0.0000000   0.0000000), wk =   0.0370370
        k(    2) = (   0.0000000  -0.0000000   0.3333333), wk =   0.0740741
        k(    3) = (   0.0000000   0.3333333  -0.0000000), wk =   0.0740741
        k(    4) = (   0.0000000   0.3333333   0.3333333), wk =   0.0740741
        k(    5) = (  -0.0000000   0.3333333  -0.3333333), wk =   0.0740741
        k(    6) = (   0.3333333   0.0000000   0.0000000), wk =   0.0740741
        k(    7) = (   0.3333333   0.0000000   0.3333333), wk =   0.0740741
        k(    8) = (   0.3333333   0.0000000  -0.3333333), wk =   0.0740741
        k(    9) = (   0.3333333   0.3333333  -0.0000000), wk =   0.0740741
        k(   10) = (   0.3333333   0.3333333   0.3333333), wk =   0.0740741
        k(   11) = (   0.3333333   0.3333333  -0.3333333), wk =   0.0740741
        k(   12) = (   0.3333333  -0.3333333   0.0000000), wk =   0.0740741
        k(   13) = (   0.3333333  -0.3333333   0.3333333), wk =   0.0740741
        k(   14) = (   0.3333333  -0.3333333  -0.3333333), wk =   0.0740741

     Dense  grid:   492431 G-vectors     FFT dimensions: (  72, 144,  96)

     Smooth grid:   183855 G-vectors     FFT dimensions: (  54, 108,  72)

     Dynamical RAM for                 wfc:      10.35 MB

     Dynamical RAM for     wfc (w. buffer):     300.03 MB

     Dynamical RAM for           str. fact:       7.51 MB

     Dynamical RAM for           local pot:       0.00 MB

     Dynamical RAM for          nlocal pot:      27.00 MB

     Dynamical RAM for                qrad:       7.46 MB

     Dynamical RAM for          rho,v,vnew:      22.66 MB

     Dynamical RAM for               rhoin:       7.55 MB

     Dynamical RAM for            rho*nmix:      60.11 MB

     Dynamical RAM for           G-vectors:       7.39 MB

     Dynamical RAM for          h,s,v(r/c):       2.55 MB

     Dynamical RAM for          <psi|beta>:       0.55 MB

     Dynamical RAM for                 psi:      20.69 MB

     Dynamical RAM for                hpsi:      20.69 MB

     Dynamical RAM for                spsi:      20.69 MB

     Dynamical RAM for      wfcinit/wfcrot:      21.01 MB

     Dynamical RAM for           addusdens:     381.33 MB

     Estimated static dynamical RAM per process >     400.40 MB

     Estimated max dynamical RAM per process >     841.84 MB

     Estimated total dynamical RAM >       3.29 GB

     Check: negative core charge=   -0.000001
     Generating pointlists ...
     new r_m :   0.1619 (alat units)  1.5346 (a.u.) for type    1
     new r_m :   0.1618 (alat units)  1.5338 (a.u.) for type    2
     new r_m :   0.1282 (alat units)  1.2154 (a.u.) for type    3
     new r_m :   0.1282 (alat units)  1.2154 (a.u.) for type    4

     Initial potential from superposition of free atoms

     starting charge     194.1952, renormalised to     196.0000
     Starting wfcs are  140 randomized atomic wfcs
     Checking if some PAW data can be deallocated... 
       PAW data deallocated on    1 nodes for type:  4

     total cpu time spent up to now is        9.5 secs

     Self-consistent Calculation

     iteration #  1     ecut=    70.00 Ry     beta= 0.30
     Davidson diagonalization with overlap

---- Real-time Memory Report at c_bands before calling an iterative solver
             0 MiB given to the printing process from OS
             0 MiB allocation reported by mallinfo(arena+hblkhd)
             0 MiB available memory on the node where the printing process lives
------------------
     ethr =  1.00E-02,  avg # of iterations =  3.2

     total cpu time spent up to now is       38.0 secs

     total energy              =   -1912.03014000 Ry
     estimated scf accuracy    <      10.56210040 Ry

     total magnetization       =    15.81 Bohr mag/cell
     absolute magnetization    =    15.86 Bohr mag/cell

     iteration #  2     ecut=    70.00 Ry     beta= 0.30
     Davidson diagonalization with overlap

---- Real-time Memory Report at c_bands before calling an iterative solver
             0 MiB given to the printing process from OS
             0 MiB allocation reported by mallinfo(arena+hblkhd)
             0 MiB available memory on the node where the printing process lives
------------------
     ethr =  5.39E-03,  avg # of iterations =  2.0
     Minimization algorithm failed to find Fermi energy: reverting to bisection
     Possible cause: smearing is larger than the electronic band-gap.

     total cpu time spent up to now is       63.5 secs

     total energy              =   -1914.62992674 Ry
     estimated scf accuracy    <       2.96967389 Ry

     total magnetization       =    12.00 Bohr mag/cell
     absolute magnetization    =    12.08 Bohr mag/cell

     iteration #  3     ecut=    70.00 Ry     beta= 0.30
     Davidson diagonalization with overlap

---- Real-time Memory Report at c_bands before calling an iterative solver
             0 MiB given to the printing process from OS
             0 MiB allocation reported by mallinfo(arena+hblkhd)
             0 MiB available memory on the node where the printing process lives
------------------
     ethr =  1.52E-03,  avg # of iterations =  1.5

     total cpu time spent up to now is       85.1 secs

     WARNING: integrated charge=   196.00574332, expected=   196.00000000

     total energy              =   -1915.24319627 Ry
     estimated scf accuracy    <       1.29424761 Ry

     total magnetization       =    11.99 Bohr mag/cell
     absolute magnetization    =    12.06 Bohr mag/cell

     iteration #  4     ecut=    70.00 Ry     beta= 0.30
     Davidson diagonalization with overlap

---- Real-time Memory Report at c_bands before calling an iterative solver
             0 MiB given to the printing process from OS
             0 MiB allocation reported by mallinfo(arena+hblkhd)
             0 MiB available memory on the node where the printing process lives
------------------
     ethr =  6.60E-04,  avg # of iterations =  2.0

     total cpu time spent up to now is      108.5 secs

     WARNING: integrated charge=   196.00390467, expected=   196.00000000

     total energy              =   -1915.39441424 Ry
     estimated scf accuracy    <       0.19908725 Ry

     total magnetization       =    12.00 Bohr mag/cell
     absolute magnetization    =    12.06 Bohr mag/cell

     iteration #  5     ecut=    70.00 Ry     beta= 0.30
     Davidson diagonalization with overlap

---- Real-time Memory Report at c_bands before calling an iterative solver
             0 MiB given to the printing process from OS
             0 MiB allocation reported by mallinfo(arena+hblkhd)
             0 MiB available memory on the node where the printing process lives
------------------
     ethr =  1.02E-04,  avg # of iterations = 12.9

     total cpu time spent up to now is      150.1 secs

     WARNING: integrated charge=   196.00191772, expected=   196.00000000

     total energy              =   -1915.41015502 Ry
     estimated scf accuracy    <       0.01418967 Ry

     total magnetization       =    12.00 Bohr mag/cell
     absolute magnetization    =    12.07 Bohr mag/cell

     iteration #  6     ecut=    70.00 Ry     beta= 0.30
     Davidson diagonalization with overlap

---- Real-time Memory Report at c_bands before calling an iterative solver
             0 MiB given to the printing process from OS
             0 MiB allocation reported by mallinfo(arena+hblkhd)
             0 MiB available memory on the node where the printing process lives
------------------
     c_bands:  1 eigenvalues not converged
     c_bands:  1 eigenvalues not converged
     c_bands:  1 eigenvalues not converged
     c_bands:  1 eigenvalues not converged
     ethr =  7.24E-06,  avg # of iterations = 10.0

     total cpu time spent up to now is      198.6 secs

     WARNING: integrated charge=   196.00118703, expected=   196.00000000

     total energy              =   -1915.41407443 Ry
     estimated scf accuracy    <       0.00269694 Ry

     total magnetization       =    12.00 Bohr mag/cell
     absolute magnetization    =    12.06 Bohr mag/cell

     iteration #  7     ecut=    70.00 Ry     beta= 0.30
     Davidson diagonalization with overlap

---- Real-time Memory Report at c_bands before calling an iterative solver
             0 MiB given to the printing process from OS
             0 MiB allocation reported by mallinfo(arena+hblkhd)
             0 MiB available memory on the node where the printing process lives
------------------
     c_bands:  1 eigenvalues not converged
     c_bands:  1 eigenvalues not converged
     c_bands:  1 eigenvalues not converged
     ethr =  1.38E-06,  avg # of iterations =  8.7

     total cpu time spent up to now is      241.0 secs

     WARNING: integrated charge=   196.00033973, expected=   196.00000000

     total energy              =   -1915.41453092 Ry
     estimated scf accuracy    <       0.00061693 Ry

     total magnetization       =    12.00 Bohr mag/cell
     absolute magnetization    =    12.07 Bohr mag/cell

     iteration #  8     ecut=    70.00 Ry     beta= 0.30
     Davidson diagonalization with overlap

---- Real-time Memory Report at c_bands before calling an iterative solver
             0 MiB given to the printing process from OS
             0 MiB allocation reported by mallinfo(arena+hblkhd)
             0 MiB available memory on the node where the printing process lives
------------------
     ethr =  3.15E-07,  avg # of iterations =  2.6

     total cpu time spent up to now is      276.2 secs

     WARNING: integrated charge=   196.00006982, expected=   196.00000000

     total energy              =   -1915.41465869 Ry
     estimated scf accuracy    <       0.00012438 Ry

     total magnetization       =    12.00 Bohr mag/cell
     absolute magnetization    =    12.07 Bohr mag/cell

     iteration #  9     ecut=    70.00 Ry     beta= 0.30
     Davidson diagonalization with overlap

---- Real-time Memory Report at c_bands before calling an iterative solver
             0 MiB given to the printing process from OS
             0 MiB allocation reported by mallinfo(arena+hblkhd)
             0 MiB available memory on the node where the printing process lives
------------------
     ethr =  6.35E-08,  avg # of iterations =  2.3

     total cpu time spent up to now is      307.7 secs

     WARNING: integrated charge=   195.99995812, expected=   196.00000000

     total energy              =   -1915.41468940 Ry
     estimated scf accuracy    <       0.00002449 Ry

     total magnetization       =    12.00 Bohr mag/cell
     absolute magnetization    =    12.07 Bohr mag/cell

     iteration # 10     ecut=    70.00 Ry     beta= 0.30
     Davidson diagonalization with overlap

---- Real-time Memory Report at c_bands before calling an iterative solver
             0 MiB given to the printing process from OS
             0 MiB allocation reported by mallinfo(arena+hblkhd)
             0 MiB available memory on the node where the printing process lives
------------------
     ethr =  1.25E-08,  avg # of iterations =  2.9

     total cpu time spent up to now is      344.1 secs

     WARNING: integrated charge=   195.99996939, expected=   196.00000000

     total energy              =   -1915.41469954 Ry
     estimated scf accuracy    <       0.00000784 Ry

     total magnetization       =    12.00 Bohr mag/cell
     absolute magnetization    =    12.07 Bohr mag/cell

     iteration # 11     ecut=    70.00 Ry     beta= 0.30
     Davidson diagonalization with overlap

---- Real-time Memory Report at c_bands before calling an iterative solver
             0 MiB given to the printing process from OS
             0 MiB allocation reported by mallinfo(arena+hblkhd)
             0 MiB available memory on the node where the printing process lives
------------------
     ethr =  4.00E-09,  avg # of iterations =  2.5

     total cpu time spent up to now is      378.4 secs

     WARNING: integrated charge=   195.99997967, expected=   196.00000000

     total energy              =   -1915.41470273 Ry
     estimated scf accuracy    <       0.00000451 Ry

     total magnetization       =    12.00 Bohr mag/cell
     absolute magnetization    =    12.07 Bohr mag/cell

     iteration # 12     ecut=    70.00 Ry     beta= 0.30
     Davidson diagonalization with overlap

---- Real-time Memory Report at c_bands before calling an iterative solver
             0 MiB given to the printing process from OS
             0 MiB allocation reported by mallinfo(arena+hblkhd)
             0 MiB available memory on the node where the printing process lives
------------------
     ethr =  2.30E-09,  avg # of iterations =  2.0

     total cpu time spent up to now is      411.7 secs

     total energy              =   -1915.41470633 Ry
     estimated scf accuracy    <       0.00000119 Ry

     total magnetization       =    12.00 Bohr mag/cell
     absolute magnetization    =    12.07 Bohr mag/cell

     iteration # 13     ecut=    70.00 Ry     beta= 0.30
     Davidson diagonalization with overlap

---- Real-time Memory Report at c_bands before calling an iterative solver
             0 MiB given to the printing process from OS
             0 MiB allocation reported by mallinfo(arena+hblkhd)
             0 MiB available memory on the node where the printing process lives
------------------
     ethr =  6.08E-10,  avg # of iterations =  2.3

     total cpu time spent up to now is      444.3 secs

     total energy              =   -1915.41470704 Ry
     estimated scf accuracy    <       0.00000052 Ry

     total magnetization       =    12.00 Bohr mag/cell
     absolute magnetization    =    12.07 Bohr mag/cell

     iteration # 14     ecut=    70.00 Ry     beta= 0.30
     Davidson diagonalization with overlap

---- Real-time Memory Report at c_bands before calling an iterative solver
             0 MiB given to the printing process from OS
             0 MiB allocation reported by mallinfo(arena+hblkhd)
             0 MiB available memory on the node where the printing process lives
------------------
     ethr =  2.66E-10,  avg # of iterations =  3.1

     total cpu time spent up to now is      480.2 secs

     total energy              =   -1915.41470771 Ry
     estimated scf accuracy    <       0.00000014 Ry

     total magnetization       =    12.00 Bohr mag/cell
     absolute magnetization    =    12.07 Bohr mag/cell

     iteration # 15     ecut=    70.00 Ry     beta= 0.30
     Davidson diagonalization with overlap

---- Real-time Memory Report at c_bands before calling an iterative solver
             0 MiB given to the printing process from OS
             0 MiB allocation reported by mallinfo(arena+hblkhd)
             0 MiB available memory on the node where the printing process lives
------------------
     ethr =  7.12E-11,  avg # of iterations =  3.1

     total cpu time spent up to now is      516.9 secs

     total energy              =   -1915.41470787 Ry
     estimated scf accuracy    <       0.00000004 Ry

     total magnetization       =    12.00 Bohr mag/cell
     absolute magnetization    =    12.07 Bohr mag/cell

     iteration # 16     ecut=    70.00 Ry     beta= 0.30
     Davidson diagonalization with overlap

---- Real-time Memory Report at c_bands before calling an iterative solver
             0 MiB given to the printing process from OS
             0 MiB allocation reported by mallinfo(arena+hblkhd)
             0 MiB available memory on the node where the printing process lives
------------------
     ethr =  1.86E-11,  avg # of iterations =  2.5

     total cpu time spent up to now is      553.2 secs

     total energy              =   -1915.41470790 Ry
     estimated scf accuracy    <       0.00000001 Ry

     total magnetization       =    12.00 Bohr mag/cell
     absolute magnetization    =    12.07 Bohr mag/cell

     iteration # 17     ecut=    70.00 Ry     beta= 0.30
     Davidson diagonalization with overlap

---- Real-time Memory Report at c_bands before calling an iterative solver
             0 MiB given to the printing process from OS
             0 MiB allocation reported by mallinfo(arena+hblkhd)
             0 MiB available memory on the node where the printing process lives
------------------
     ethr =  5.64E-12,  avg # of iterations =  2.2

     Magnetic moment per site  (integrated on atomic sphere of radius R)
     atom   1 (R=0.162)  charge=  2.1255  magn=  0.0013
     atom   2 (R=0.162)  charge=  2.1256  magn=  0.0013
     atom   3 (R=0.162)  charge=  2.1257  magn=  0.0013
     atom   4 (R=0.162)  charge=  2.1257  magn=  0.0013
     atom   5 (R=0.162)  charge= 14.2457  magn=  2.3891
     atom   6 (R=0.162)  charge= 14.2457  magn=  2.3891
     atom   7 (R=0.162)  charge= 14.2456  magn=  2.3892
     atom   8 (R=0.162)  charge= 14.2456  magn=  2.3892
     atom   9 (R=0.128)  charge=  0.8985  magn=  0.0054
     atom  10 (R=0.128)  charge=  0.8985  magn=  0.0054
     atom  11 (R=0.128)  charge=  0.8985  magn=  0.0054
     atom  12 (R=0.128)  charge=  0.8985  magn=  0.0054
     atom  13 (R=0.128)  charge=  4.3357  magn=  0.0627
     atom  14 (R=0.128)  charge=  4.3358  magn=  0.0627
     atom  15 (R=0.128)  charge=  4.3358  magn=  0.0627
     atom  16 (R=0.128)  charge=  4.3357  magn=  0.0627
     atom  17 (R=0.128)  charge=  4.3375  magn=  0.0603
     atom  18 (R=0.128)  charge=  4.3379  magn=  0.0602
     atom  19 (R=0.128)  charge=  4.3376  magn=  0.0603
     atom  20 (R=0.128)  charge=  4.3379  magn=  0.0602
     atom  21 (R=0.128)  charge=  4.3372  magn=  0.0616
     atom  22 (R=0.128)  charge=  4.3372  magn=  0.0616
     atom  23 (R=0.128)  charge=  4.3373  magn=  0.0615
     atom  24 (R=0.128)  charge=  4.3373  magn=  0.0616
     atom  25 (R=0.128)  charge=  4.3371  magn=  0.0587
     atom  26 (R=0.128)  charge=  4.3372  magn=  0.0587
     atom  27 (R=0.128)  charge=  4.3371  magn=  0.0587
     atom  28 (R=0.128)  charge=  4.3372  magn=  0.0587

     total cpu time spent up to now is      588.7 secs

     End of self-consistent calculation

 ------ SPIN UP ------------


          k = 0.0000 0.0000 0.0000 ( 23021 PWs)   bands (ev):

   -90.3577 -90.3576 -90.3552 -90.3551 -54.1619 -54.1618 -54.1595 -54.1594
   -53.9916 -53.9915 -53.9891 -53.9890 -53.8725 -53.8724 -53.8697 -53.8697
   -38.5251 -38.5250 -38.5211 -38.5210 -16.2718 -16.1585 -16.1490 -16.1154
   -13.8920 -13.8482 -13.7892 -13.7752 -13.7564 -13.7503 -13.6908 -13.6733
   -13.6607 -13.6550 -13.6293 -13.6030  -3.9007  -3.6563  -3.5608  -3.4084
    -1.7676  -1.6061  -1.5456  -1.5287  -1.4549  -1.3956  -1.3301  -1.2896
    -1.2842  -1.1332  -1.1144  -0.9594   0.3026   0.3042   0.3066   0.5031
     0.6122   0.7612   0.7907   1.0161   1.0179   1.0210   1.0729   1.2223
     1.2706   1.3793   1.4435   1.4609   1.5762   1.6635   1.6763   1.7858
     1.9338   1.9749   1.9825   2.0705   2.5077   2.5865   2.6510   2.6737
     2.7600   2.8337   2.9938   3.1135   3.8798   3.9180   3.9279   3.9474
     3.9785   4.0496   4.0658   4.1017   4.1742   4.1839   4.1976   4.2271
     4.2749   4.3402   4.3933   4.4331   4.4879   4.5369   4.5540   4.7498
     8.5188  10.2137  10.6970  11.9786  12.0973  12.4821  12.5728  12.6953
    12.9739  12.9883  13.1190  13.2265  13.4298  13.5343

     occupation numbers 
     1.0000   1.0000   1.0000   1.0000   1.0000   1.0000   1.0000   1.0000
     1.0000   1.0000   1.0000   1.0000   1.0000   1.0000   1.0000   1.0000
     1.0000   1.0000   1.0000   1.0000   1.0000   1.0000   1.0000   1.0000
     1.0000   1.0000   1.0000   1.0000   1.0000   1.0000   1.0000   1.0000
     1.0000   1.0000   1.0000   1.0000   1.0000   1.0000   1.0000   1.0000
     1.0000   1.0000   1.0000   1.0000   1.0000   1.0000   1.0000   1.0000
     1.0000   1.0000   1.0000   1.0000   1.0000   1.0000   1.0000   1.0000
     1.0000   1.0000   1.0000   1.0000   1.0000   1.0000   1.0000   1.0000
     1.0000   1.0000   1.0000   1.0000   1.0000   1.0000   1.0000   1.0000
     1.0000   1.0000   1.0000   1.0000   1.0000   1.0000   1.0000   1.0000
     1.0000   1.0000   1.0000   1.0000   1.0000   1.0000   1.0000   1.0000
     1.0000   1.0000   1.0000   1.0000   1.0000   1.0000   1.0000   1.0000
     1.0000   1.0000   1.0000   1.0000   1.0000   1.0000   1.0000   1.0000
     0.0000   0.0000   0.0000   0.0000   0.0000   0.0000   0.0000   0.0000
     0.0000   0.0000   0.0000   0.0000   0.0000   0.0000

          k = 0.0000-0.0000 0.2475 ( 23002 PWs)   bands (ev):

   -90.3577 -90.3576 -90.3552 -90.3551 -54.1619 -54.1618 -54.1595 -54.1594
   -53.9916 -53.9915 -53.9891 -53.9890 -53.8725 -53.8725 -53.8697 -53.8697
   -38.5251 -38.5250 -38.5211 -38.5210 -16.2341 -16.1563 -16.1548 -16.1503
   -13.8877 -13.8524 -13.8188 -13.7718 -13.7381 -13.7189 -13.7012 -13.6926
   -13.6522 -13.6409 -13.6366 -13.6147  -3.7781  -3.6209  -3.5724  -3.5316
    -1.7318  -1.6184  -1.5445  -1.5314  -1.4761  -1.4122  -1.4108  -1.3732
    -1.1284  -1.0734  -1.0503  -0.9552   0.3140   0.3296   0.3428   0.4399
     0.5916   0.6494   0.6801   0.8534   1.0464   1.0609   1.0911   1.1294
     1.3761   1.3885   1.3962   1.4283   1.7626   1.7686   1.7804   1.8322
     1.8866   1.9489   1.9805   2.0403   2.4907   2.5462   2.5492   2.5890
     2.8583   2.9095   3.0391   3.0838   3.8269   3.8847   3.9255   3.9324
     3.9951   4.0184   4.0372   4.0446   4.1816   4.2047   4.2164   4.2185
     4.2677   4.2969   4.3000   4.4950   4.5085   4.5512   4.5754   4.6670
     9.1458  10.5317  10.5413  10.8446  12.1751  12.2371  12.9530  12.9677
    13.0453  13.0539  13.3263  13.4911  13.5818  13.7380

     occupation numbers 
     1.0000   1.0000   1.0000   1.0000   1.0000   1.0000   1.0000   1.0000
     1.0000   1.0000   1.0000   1.0000   1.0000   1.0000   1.0000   1.0000
     1.0000   1.0000   1.0000   1.0000   1.0000   1.0000   1.0000   1.0000
     1.0000   1.0000   1.0000   1.0000   1.0000   1.0000   1.0000   1.0000
     1.0000   1.0000   1.0000   1.0000   1.0000   1.0000   1.0000   1.0000
     1.0000   1.0000   1.0000   1.0000   1.0000   1.0000   1.0000   1.0000
     1.0000   1.0000   1.0000   1.0000   1.0000   1.0000   1.0000   1.0000
     1.0000   1.0000   1.0000   1.0000   1.0000   1.0000   1.0000   1.0000
     1.0000   1.0000   1.0000   1.0000   1.0000   1.0000   1.0000   1.0000
     1.0000   1.0000   1.0000   1.0000   1.0000   1.0000   1.0000   1.0000
     1.0000   1.0000   1.0000   1.0000   1.0000   1.0000   1.0000   1.0000
     1.0000   1.0000   1.0000   1.0000   1.0000   1.0000   1.0000   1.0000
     1.0000   1.0000   1.0000   1.0000   1.0000   1.0000   1.0000   1.0000
     0.0000   0.0000   0.0000   0.0000   0.0000   0.0000   0.0000   0.0000
     0.0000   0.0000   0.0000   0.0000   0.0000   0.0000

          k =-0.0000 0.1646 0.0000 ( 22999 PWs)   bands (ev):

   -90.3577 -90.3576 -90.3552 -90.3551 -54.1619 -54.1618 -54.1595 -54.1594
   -53.9916 -53.9915 -53.9891 -53.9890 -53.8725 -53.8724 -53.8697 -53.8697
   -38.5251 -38.5250 -38.5211 -38.5210 -16.2522 -16.2043 -16.1234 -16.1153
   -13.8750 -13.8524 -13.7892 -13.7749 -13.7653 -13.7506 -13.6863 -13.6771
   -13.6629 -13.6595 -13.6216 -13.6083  -3.8582  -3.7514  -3.4872  -3.4264
    -1.7081  -1.6126  -1.5279  -1.5003  -1.4702  -1.4547  -1.3012  -1.2927
    -1.2915  -1.2234  -1.0766  -0.9925   0.2817   0.2940   0.3675   0.4339
     0.7181   0.7858   0.8812   0.9701   0.9999   1.0246   1.0642   1.1567
     1.2750   1.3754   1.4278   1.4760   1.6396   1.6590   1.6921   1.6991
     1.8393   1.8407   2.1378   2.1611   2.4976   2.5411   2.6688   2.6726
     2.8335   2.8709   2.9821   3.0362   3.8418   3.8515   3.9512   3.9968
     4.0334   4.0760   4.1002   4.1145   4.1639   4.1853   4.1976   4.2560
     4.2887   4.3342   4.3963   4.4011   4.4471   4.5541   4.5681   4.6461
     8.8118   9.5284  11.3319  11.9194  12.0246  12.2108  12.6246  12.7877
    12.9629  13.0102  13.1836  13.2449  13.4210  13.5573

     occupation numbers 
     1.0000   1.0000   1.0000   1.0000   1.0000   1.0000   1.0000   1.0000
     1.0000   1.0000   1.0000   1.0000   1.0000   1.0000   1.0000   1.0000
     1.0000   1.0000   1.0000   1.0000   1.0000   1.0000   1.0000   1.0000
     1.0000   1.0000   1.0000   1.0000   1.0000   1.0000   1.0000   1.0000
     1.0000   1.0000   1.0000   1.0000   1.0000   1.0000   1.0000   1.0000
     1.0000   1.0000   1.0000   1.0000   1.0000   1.0000   1.0000   1.0000
     1.0000   1.0000   1.0000   1.0000   1.0000   1.0000   1.0000   1.0000
     1.0000   1.0000   1.0000   1.0000   1.0000   1.0000   1.0000   1.0000
     1.0000   1.0000   1.0000   1.0000   1.0000   1.0000   1.0000   1.0000
     1.0000   1.0000   1.0000   1.0000   1.0000   1.0000   1.0000   1.0000
     1.0000   1.0000   1.0000   1.0000   1.0000   1.0000   1.0000   1.0000
     1.0000   1.0000   1.0000   1.0000   1.0000   1.0000   1.0000   1.0000
     1.0000   1.0000   1.0000   1.0000   1.0000   1.0000   1.0000   1.0000
     0.0000   0.0000   0.0000   0.0000   0.0000   0.0000   0.0000   0.0000
     0.0000   0.0000   0.0000   0.0000   0.0000   0.0000

          k = 0.0000 0.1646 0.2475 ( 23010 PWs)   bands (ev):

   -90.3577 -90.3576 -90.3552 -90.3551 -54.1619 -54.1618 -54.1595 -54.1594
   -53.9916 -53.9915 -53.9891 -53.9890 -53.8725 -53.8725 -53.8697 -53.8697
   -38.5251 -38.5250 -38.5211 -38.5210 -16.2189 -16.1838 -16.1505 -16.1432
   -13.8680 -13.8345 -13.8324 -13.7951 -13.7324 -13.7239 -13.7009 -13.6960
   -13.6494 -13.6438 -13.6301 -13.6189  -3.7481  -3.6772  -3.5441  -3.5314
    -1.6778  -1.5821  -1.5805  -1.5258  -1.4823  -1.4504  -1.3772  -1.3686
    -1.1447  -1.1111  -1.0586  -1.0004   0.3078   0.3210   0.3785   0.4185
     0.6821   0.7161   0.7192   0.8278   1.0169   1.0228   1.0974   1.1150
     1.3387   1.3608   1.4252   1.4415   1.7188   1.7308   1.7903   1.7922
     1.9013   1.9413   2.0288   2.0684   2.4834   2.5295   2.5738   2.5747
     2.8691   2.9219   3.0201   3.0652   3.8299   3.8660   3.9494   3.9668
     3.9883   4.0422   4.0547   4.1039   4.1572   4.1680   4.2231   4.2288
     4.3020   4.3164   4.3579   4.4691   4.4906   4.5030   4.5675   4.5941
     9.3757   9.9681  10.6422  10.8985  12.2466  12.8013  12.8180  13.0212
    13.0575  13.1740  13.2061  13.4368  13.4867  13.5995

     occupation numbers 
     1.0000   1.0000   1.0000   1.0000   1.0000   1.0000   1.0000   1.0000
     1.0000   1.0000   1.0000   1.0000   1.0000   1.0000   1.0000   1.0000
     1.0000   1.0000   1.0000   1.0000   1.0000   1.0000   1.0000   1.0000
     1.0000   1.0000   1.0000   1.0000   1.0000   1.0000   1.0000   1.0000
     1.0000   1.0000   1.0000   1.0000   1.0000   1.0000   1.0000   1.0000
     1.0000   1.0000   1.0000   1.0000   1.0000   1.0000   1.0000   1.0000
     1.0000   1.0000   1.0000   1.0000   1.0000   1.0000   1.0000   1.0000
     1.0000   1.0000   1.0000   1.0000   1.0000   1.0000   1.0000   1.0000
     1.0000   1.0000   1.0000   1.0000   1.0000   1.0000   1.0000   1.0000
     1.0000   1.0000   1.0000   1.0000   1.0000   1.0000   1.0000   1.0000
     1.0000   1.0000   1.0000   1.0000   1.0000   1.0000   1.0000   1.0000
     1.0000   1.0000   1.0000   1.0000   1.0000   1.0000   1.0000   1.0000
     1.0000   1.0000   1.0000   1.0000   1.0000   1.0000   1.0000   1.0000
     0.0000   0.0000   0.0000   0.0000   0.0000   0.0000   0.0000   0.0000
     0.0000   0.0000   0.0000   0.0000   0.0000   0.0000

          k =-0.0000 0.1646-0.2475 ( 23008 PWs)   bands (ev):

   -90.3577 -90.3576 -90.3552 -90.3551 -54.1619 -54.1618 -54.1595 -54.1594
   -53.9916 -53.9915 -53.9891 -53.9890 -53.8725 -53.8725 -53.8697 -53.8697
   -38.5251 -38.5250 -38.5211 -38.5210 -16.2189 -16.1838 -16.1505 -16.1433
   -13.8680 -13.8345 -13.8324 -13.7952 -13.7324 -13.7239 -13.7009 -13.6961
   -13.6493 -13.6438 -13.6301 -13.6188  -3.7480  -3.6772  -3.5441  -3.5314
    -1.6778  -1.5820  -1.5805  -1.5259  -1.4823  -1.4503  -1.3772  -1.3686
    -1.1448  -1.1111  -1.0585  -1.0004   0.3078   0.3210   0.3785   0.4185
     0.6821   0.7161   0.7193   0.8278   1.0168   1.0228   1.0975   1.1150
     1.3387   1.3608   1.4252   1.4414   1.7187   1.7309   1.7903   1.7922
     1.9013   1.9413   2.0287   2.0685   2.4834   2.5295   2.5737   2.5747
     2.8691   2.9219   3.0201   3.0652   3.8299   3.8660   3.9494   3.9668
     3.9882   4.0422   4.0547   4.1039   4.1572   4.1680   4.2231   4.2288
     4.3020   4.3165   4.3579   4.4691   4.4906   4.5031   4.5674   4.5941
     9.3757   9.9681  10.6422  10.8986  12.2465  12.8013  12.8179  13.0212
    13.0576  13.1739  13.2062  13.4368  13.4868  13.5996

     occupation numbers 
     1.0000   1.0000   1.0000   1.0000   1.0000   1.0000   1.0000   1.0000
     1.0000   1.0000   1.0000   1.0000   1.0000   1.0000   1.0000   1.0000
     1.0000   1.0000   1.0000   1.0000   1.0000   1.0000   1.0000   1.0000
     1.0000   1.0000   1.0000   1.0000   1.0000   1.0000   1.0000   1.0000
     1.0000   1.0000   1.0000   1.0000   1.0000   1.0000   1.0000   1.0000
     1.0000   1.0000   1.0000   1.0000   1.0000   1.0000   1.0000   1.0000
     1.0000   1.0000   1.0000   1.0000   1.0000   1.0000   1.0000   1.0000
     1.0000   1.0000   1.0000   1.0000   1.0000   1.0000   1.0000   1.0000
     1.0000   1.0000   1.0000   1.0000   1.0000   1.0000   1.0000   1.0000
     1.0000   1.0000   1.0000   1.0000   1.0000   1.0000   1.0000   1.0000
     1.0000   1.0000   1.0000   1.0000   1.0000   1.0000   1.0000   1.0000
     1.0000   1.0000   1.0000   1.0000   1.0000   1.0000   1.0000   1.0000
     1.0000   1.0000   1.0000   1.0000   1.0000   1.0000   1.0000   1.0000
     0.0000   0.0000   0.0000   0.0000   0.0000   0.0000   0.0000   0.0000
     0.0000   0.0000   0.0000   0.0000   0.0000   0.0000

          k = 0.3333-0.0000 0.0000 ( 22947 PWs)   bands (ev):

   -90.3577 -90.3576 -90.3552 -90.3551 -54.1619 -54.1618 -54.1595 -54.1594
   -53.9916 -53.9915 -53.9891 -53.9890 -53.8725 -53.8725 -53.8697 -53.8697
   -38.5250 -38.5250 -38.5211 -38.5210 -16.2030 -16.1314 -16.1160 -16.1118
   -13.8799 -13.8396 -13.8011 -13.7693 -13.7680 -13.7445 -13.7183 -13.7105
   -13.7077 -13.6944 -13.6765 -13.6505  -3.7776  -3.6048  -3.5695  -3.5128
    -1.6881  -1.6370  -1.5824  -1.4928  -1.3903  -1.3380  -1.2200  -1.1557
    -1.1331  -1.0836  -0.9782  -0.8340   0.1169   0.1796   0.3926   0.5091
     0.6111   0.6207   0.7601   0.8977   0.9360   0.9470   1.0955   1.1379
     1.2085   1.2629   1.3092   1.3324   1.5769   1.6639   1.7532   1.7815
     1.8472   1.9403   2.0080   2.0497   2.3263   2.3845   2.5941   2.7498
     2.8265   3.1096   3.1564   3.1948   3.7999   3.8137   3.9096   3.9178
     3.9862   4.0136   4.0723   4.0887   4.1357   4.1594   4.2447   4.2513
     4.3323   4.3634   4.4226   4.4651   4.5374   4.5552   4.7354   4.7898
     9.5527  10.8669  11.2393  11.2829  12.0122  12.0694  12.2705  12.4597
    12.5668  12.5683  12.6979  13.0166  13.0965  13.1711

     occupation numbers 
     1.0000   1.0000   1.0000   1.0000   1.0000   1.0000   1.0000   1.0000
     1.0000   1.0000   1.0000   1.0000   1.0000   1.0000   1.0000   1.0000
     1.0000   1.0000   1.0000   1.0000   1.0000   1.0000   1.0000   1.0000
     1.0000   1.0000   1.0000   1.0000   1.0000   1.0000   1.0000   1.0000
     1.0000   1.0000   1.0000   1.0000   1.0000   1.0000   1.0000   1.0000
     1.0000   1.0000   1.0000   1.0000   1.0000   1.0000   1.0000   1.0000
     1.0000   1.0000   1.0000   1.0000   1.0000   1.0000   1.0000   1.0000
     1.0000   1.0000   1.0000   1.0000   1.0000   1.0000   1.0000   1.0000
     1.0000   1.0000   1.0000   1.0000   1.0000   1.0000   1.0000   1.0000
     1.0000   1.0000   1.0000   1.0000   1.0000   1.0000   1.0000   1.0000
     1.0000   1.0000   1.0000   1.0000   1.0000   1.0000   1.0000   1.0000
     1.0000   1.0000   1.0000   1.0000   1.0000   1.0000   1.0000   1.0000
     1.0000   1.0000   1.0000   1.0000   1.0000   1.0000   1.0000   1.0000
     0.0000   0.0000   0.0000   0.0000   0.0000   0.0000   0.0000   0.0000
     0.0000   0.0000   0.0000   0.0000   0.0000   0.0000

          k = 0.3333-0.0000 0.2475 ( 23007 PWs)   bands (ev):

   -90.3577 -90.3576 -90.3552 -90.3551 -54.1619 -54.1618 -54.1595 -54.1594
   -53.9916 -53.9915 -53.9891 -53.9890 -53.8725 -53.8725 -53.8697 -53.8697
   -38.5250 -38.5250 -38.5211 -38.5210 -16.1818 -16.1419 -16.1192 -16.1173
   -13.8698 -13.8470 -13.8195 -13.7945 -13.7565 -13.7439 -13.7299 -13.7118
   -13.6913 -13.6780 -13.6691 -13.6551  -3.7067  -3.5900  -3.5685  -3.5668
    -1.6781  -1.6591  -1.5279  -1.4619  -1.4107  -1.3460  -1.2288  -1.1962
    -1.0718  -1.0307  -0.9529  -0.8868   0.1824   0.2430   0.3682   0.3934
     0.6112   0.6413   0.7191   0.7837   0.9339   0.9829   1.0825   1.0874
     1.2417   1.2863   1.3112   1.3866   1.5260   1.5848   1.7399   1.7401
     1.8175   1.8586   1.9917   2.0780   2.4116   2.4910   2.5938   2.7092
     2.9518   2.9549   3.1267   3.2069   3.7503   3.7611   3.9226   3.9312
     4.0354   4.0363   4.0870   4.1093   4.1692   4.1878   4.2224   4.2413
     4.3166   4.3644   4.4396   4.4510   4.5597   4.5898   4.6690   4.7239
     9.9870  10.8532  11.1369  11.3495  11.9681  12.0305  12.4741  12.6389
    12.6514  12.7723  12.8323  13.1181  13.2020  13.3844

     occupation numbers 
     1.0000   1.0000   1.0000   1.0000   1.0000   1.0000   1.0000   1.0000
     1.0000   1.0000   1.0000   1.0000   1.0000   1.0000   1.0000   1.0000
     1.0000   1.0000   1.0000   1.0000   1.0000   1.0000   1.0000   1.0000
     1.0000   1.0000   1.0000   1.0000   1.0000   1.0000   1.0000   1.0000
     1.0000   1.0000   1.0000   1.0000   1.0000   1.0000   1.0000   1.0000
     1.0000   1.0000   1.0000   1.0000   1.0000   1.0000   1.0000   1.0000
     1.0000   1.0000   1.0000   1.0000   1.0000   1.0000   1.0000   1.0000
     1.0000   1.0000   1.0000   1.0000   1.0000   1.0000   1.0000   1.0000
     1.0000   1.0000   1.0000   1.0000   1.0000   1.0000   1.0000   1.0000
     1.0000   1.0000   1.0000   1.0000   1.0000   1.0000   1.0000   1.0000
     1.0000   1.0000   1.0000   1.0000   1.0000   1.0000   1.0000   1.0000
     1.0000   1.0000   1.0000   1.0000   1.0000   1.0000   1.0000   1.0000
     1.0000   1.0000   1.0000   1.0000   1.0000   1.0000   1.0000   1.0000
     0.0000   0.0000   0.0000   0.0000   0.0000   0.0000   0.0000   0.0000
     0.0000   0.0000   0.0000   0.0000   0.0000   0.0000

          k = 0.3333 0.0000-0.2475 ( 23008 PWs)   bands (ev):

   -90.3577 -90.3576 -90.3552 -90.3551 -54.1619 -54.1618 -54.1595 -54.1594
   -53.9916 -53.9915 -53.9891 -53.9890 -53.8725 -53.8725 -53.8697 -53.8697
   -38.5250 -38.5250 -38.5211 -38.5210 -16.1817 -16.1420 -16.1191 -16.1173
   -13.8699 -13.8478 -13.8174 -13.7952 -13.7593 -13.7415 -13.7293 -13.7125
   -13.6891 -13.6797 -13.6703 -13.6542  -3.7067  -3.5894  -3.5691  -3.5669
    -1.6768  -1.6604  -1.5272  -1.4631  -1.4112  -1.3454  -1.2289  -1.1956
    -1.0707  -1.0314  -0.9536  -0.8864   0.1833   0.2427   0.3674   0.3932
     0.6101   0.6424   0.7179   0.7855   0.9343   0.9834   1.0819   1.0881
     1.2405   1.2869   1.3109   1.3858   1.5246   1.5858   1.7401   1.7407
     1.8166   1.8598   1.9934   2.0762   2.4116   2.4910   2.5927   2.7103
     2.9519   2.9538   3.1279   3.2064   3.7518   3.7599   3.9213   3.9322
     4.0349   4.0364   4.0871   4.1086   4.1689   4.1876   4.2215   4.2433
     4.3160   4.3654   4.4410   4.4510   4.5594   4.5882   4.6688   4.7244
     9.9871  10.8527  11.1375  11.3498  11.9677  12.0298  12.4742  12.6389
    12.6514  12.7734  12.8317  13.1186  13.2023  13.3833

     occupation numbers 
     1.0000   1.0000   1.0000   1.0000   1.0000   1.0000   1.0000   1.0000
     1.0000   1.0000   1.0000   1.0000   1.0000   1.0000   1.0000   1.0000
     1.0000   1.0000   1.0000   1.0000   1.0000   1.0000   1.0000   1.0000
     1.0000   1.0000   1.0000   1.0000   1.0000   1.0000   1.0000   1.0000
     1.0000   1.0000   1.0000   1.0000   1.0000   1.0000   1.0000   1.0000
     1.0000   1.0000   1.0000   1.0000   1.0000   1.0000   1.0000   1.0000
     1.0000   1.0000   1.0000   1.0000   1.0000   1.0000   1.0000   1.0000
     1.0000   1.0000   1.0000   1.0000   1.0000   1.0000   1.0000   1.0000
     1.0000   1.0000   1.0000   1.0000   1.0000   1.0000   1.0000   1.0000
     1.0000   1.0000   1.0000   1.0000   1.0000   1.0000   1.0000   1.0000
     1.0000   1.0000   1.0000   1.0000   1.0000   1.0000   1.0000   1.0000
     1.0000   1.0000   1.0000   1.0000   1.0000   1.0000   1.0000   1.0000
     1.0000   1.0000   1.0000   1.0000   1.0000   1.0000   1.0000   1.0000
     0.0000   0.0000   0.0000   0.0000   0.0000   0.0000   0.0000   0.0000
     0.0000   0.0000   0.0000   0.0000   0.0000   0.0000

          k = 0.3333 0.1646 0.0000 ( 22949 PWs)   bands (ev):

   -90.3577 -90.3576 -90.3552 -90.3551 -54.1619 -54.1618 -54.1595 -54.1594
   -53.9916 -53.9915 -53.9891 -53.9890 -53.8725 -53.8725 -53.8697 -53.8697
   -38.5250 -38.5250 -38.5211 -38.5210 -16.1879 -16.1535 -16.1142 -16.1074
   -13.8647 -13.8431 -13.7930 -13.7765 -13.7673 -13.7559 -13.7137 -13.7098
   -13.7041 -13.6952 -13.6765 -13.6602  -3.7461  -3.6707  -3.5315  -3.5140
    -1.6588  -1.6127  -1.5528  -1.4715  -1.3666  -1.3505  -1.2790  -1.2453
    -1.1534  -1.1319  -0.9046  -0.8500   0.1398   0.1739   0.4023   0.4574
     0.6711   0.6927   0.8220   0.8717   0.9158   0.9897   1.0704   1.1129
     1.1603   1.2019   1.3161   1.3701   1.5494   1.6414   1.6846   1.7325
     1.9400   2.0019   2.0371   2.0674   2.3133   2.3641   2.5844   2.6276
     2.9794   3.0836   3.1533   3.1639   3.8353   3.8433   3.9301   3.9505
     3.9879   4.0480   4.0765   4.0932   4.1199   4.1463   4.2308   4.2550
     4.3263   4.3561   4.4374   4.4562   4.4948   4.5650   4.7192   4.7403
     9.7790  10.3459  11.3975  11.6197  11.7318  11.9682  12.3397  12.4860
    12.6440  12.6700  12.7606  12.9806  13.0814  13.1421

     occupation numbers 
     1.0000   1.0000   1.0000   1.0000   1.0000   1.0000   1.0000   1.0000
     1.0000   1.0000   1.0000   1.0000   1.0000   1.0000   1.0000   1.0000
     1.0000   1.0000   1.0000   1.0000   1.0000   1.0000   1.0000   1.0000
     1.0000   1.0000   1.0000   1.0000   1.0000   1.0000   1.0000   1.0000
     1.0000   1.0000   1.0000   1.0000   1.0000   1.0000   1.0000   1.0000
     1.0000   1.0000   1.0000   1.0000   1.0000   1.0000   1.0000   1.0000
     1.0000   1.0000   1.0000   1.0000   1.0000   1.0000   1.0000   1.0000
     1.0000   1.0000   1.0000   1.0000   1.0000   1.0000   1.0000   1.0000
     1.0000   1.0000   1.0000   1.0000   1.0000   1.0000   1.0000   1.0000
     1.0000   1.0000   1.0000   1.0000   1.0000   1.0000   1.0000   1.0000
     1.0000   1.0000   1.0000   1.0000   1.0000   1.0000   1.0000   1.0000
     1.0000   1.0000   1.0000   1.0000   1.0000   1.0000   1.0000   1.0000
     1.0000   1.0000   1.0000   1.0000   1.0000   1.0000   1.0000   1.0000
     0.0000   0.0000   0.0000   0.0000   0.0000   0.0000   0.0000   0.0000
     0.0000   0.0000   0.0000   0.0000   0.0000   0.0000

          k = 0.3333 0.1646 0.2475 ( 22980 PWs)   bands (ev):

   -90.3577 -90.3576 -90.3552 -90.3551 -54.1619 -54.1618 -54.1595 -54.1594
   -53.9916 -53.9915 -53.9891 -53.9890 -53.8725 -53.8725 -53.8697 -53.8697
   -38.5250 -38.5250 -38.5211 -38.5210 -16.1690 -16.1425 -16.1309 -16.1187
   -13.8559 -13.8393 -13.8221 -13.8059 -13.7539 -13.7392 -13.7313 -13.7181
   -13.6889 -13.6771 -13.6719 -13.6620  -3.6824  -3.6266  -3.5695  -3.5522
    -1.6463  -1.6136  -1.5568  -1.4800  -1.3745  -1.3261  -1.2700  -1.2187
    -1.0895  -1.0570  -0.9588  -0.8967   0.1649   0.2674   0.3588   0.3899
     0.5867   0.7221   0.7632   0.7987   0.9077   0.9962   1.0276   1.1751
     1.2107   1.2651   1.3287   1.3650   1.5213   1.5805   1.6740   1.7261
     1.8292   1.8905   1.9355   2.1205   2.3634   2.5410   2.6276   2.7077
     2.8796   2.9773   3.0989   3.2200   3.7904   3.8373   3.9017   3.9332
     4.0250   4.0645   4.0951   4.1418   4.1647   4.2064   4.2226   4.2812
     4.3152   4.3490   4.4189   4.4568   4.5045   4.5750   4.6422   4.6914
    10.1711  10.6504  10.9802  11.2493  12.1242  12.2594  12.4211  12.5716
    12.7468  12.8437  12.9012  13.0518  13.1846  13.3592

     occupation numbers 
     1.0000   1.0000   1.0000   1.0000   1.0000   1.0000   1.0000   1.0000
     1.0000   1.0000   1.0000   1.0000   1.0000   1.0000   1.0000   1.0000
     1.0000   1.0000   1.0000   1.0000   1.0000   1.0000   1.0000   1.0000
     1.0000   1.0000   1.0000   1.0000   1.0000   1.0000   1.0000   1.0000
     1.0000   1.0000   1.0000   1.0000   1.0000   1.0000   1.0000   1.0000
     1.0000   1.0000   1.0000   1.0000   1.0000   1.0000   1.0000   1.0000
     1.0000   1.0000   1.0000   1.0000   1.0000   1.0000   1.0000   1.0000
     1.0000   1.0000   1.0000   1.0000   1.0000   1.0000   1.0000   1.0000
     1.0000   1.0000   1.0000   1.0000   1.0000   1.0000   1.0000   1.0000
     1.0000   1.0000   1.0000   1.0000   1.0000   1.0000   1.0000   1.0000
     1.0000   1.0000   1.0000   1.0000   1.0000   1.0000   1.0000   1.0000
     1.0000   1.0000   1.0000   1.0000   1.0000   1.0000   1.0000   1.0000
     1.0000   1.0000   1.0000   1.0000   1.0000   1.0000   1.0000   1.0000
     0.0000   0.0000   0.0000   0.0000   0.0000   0.0000   0.0000   0.0000
     0.0000   0.0000   0.0000   0.0000   0.0000   0.0000

          k = 0.3333 0.1646-0.2475 ( 22980 PWs)   bands (ev):

   -90.3577 -90.3576 -90.3552 -90.3551 -54.1619 -54.1618 -54.1595 -54.1594
   -53.9916 -53.9915 -53.9891 -53.9890 -53.8725 -53.8725 -53.8697 -53.8697
   -38.5250 -38.5250 -38.5211 -38.5210 -16.1690 -16.1425 -16.1309 -16.1187
   -13.8557 -13.8403 -13.8208 -13.8063 -13.7559 -13.7372 -13.7304 -13.7185
   -13.6880 -13.6783 -13.6736 -13.6606  -3.6824  -3.6264  -3.5691  -3.5528
    -1.6449  -1.6151  -1.5565  -1.4807  -1.3751  -1.3256  -1.2698  -1.2185
    -1.0884  -1.0572  -0.9598  -0.8964   0.1657   0.2671   0.3582   0.3896
     0.5862   0.7223   0.7623   0.8003   0.9081   0.9966   1.0278   1.1743
     1.2120   1.2634   1.3295   1.3638   1.5203   1.5812   1.6745   1.7260
     1.8297   1.8909   1.9365   2.1193   2.3635   2.5412   2.6270   2.7075
     2.8799   2.9770   3.0995   3.2199   3.7902   3.8377   3.9018   3.9327
     4.0253   4.0650   4.0941   4.1406   4.1645   4.2061   4.2229   4.2818
     4.3157   4.3502   4.4196   4.4565   4.5039   4.5745   4.6422   4.6913
    10.1712  10.6502  10.9802  11.2495  12.1237  12.2590  12.4210  12.5723
    12.7463  12.8433  12.9016  13.0520  13.1851  13.3545

     occupation numbers 
     1.0000   1.0000   1.0000   1.0000   1.0000   1.0000   1.0000   1.0000
     1.0000   1.0000   1.0000   1.0000   1.0000   1.0000   1.0000   1.0000
     1.0000   1.0000   1.0000   1.0000   1.0000   1.0000   1.0000   1.0000
     1.0000   1.0000   1.0000   1.0000   1.0000   1.0000   1.0000   1.0000
     1.0000   1.0000   1.0000   1.0000   1.0000   1.0000   1.0000   1.0000
     1.0000   1.0000   1.0000   1.0000   1.0000   1.0000   1.0000   1.0000
     1.0000   1.0000   1.0000   1.0000   1.0000   1.0000   1.0000   1.0000
     1.0000   1.0000   1.0000   1.0000   1.0000   1.0000   1.0000   1.0000
     1.0000   1.0000   1.0000   1.0000   1.0000   1.0000   1.0000   1.0000
     1.0000   1.0000   1.0000   1.0000   1.0000   1.0000   1.0000   1.0000
     1.0000   1.0000   1.0000   1.0000   1.0000   1.0000   1.0000   1.0000
     1.0000   1.0000   1.0000   1.0000   1.0000   1.0000   1.0000   1.0000
     1.0000   1.0000   1.0000   1.0000   1.0000   1.0000   1.0000   1.0000
     0.0000   0.0000   0.0000   0.0000   0.0000   0.0000   0.0000   0.0000
     0.0000   0.0000   0.0000   0.0000   0.0000   0.0000

          k = 0.3333-0.1646 0.0000 ( 22949 PWs)   bands (ev):

   -90.3577 -90.3576 -90.3552 -90.3551 -54.1619 -54.1618 -54.1595 -54.1594
   -53.9916 -53.9915 -53.9891 -53.9890 -53.8725 -53.8725 -53.8697 -53.8697
   -38.5250 -38.5250 -38.5211 -38.5210 -16.1879 -16.1535 -16.1142 -16.1075
   -13.8647 -13.8431 -13.7930 -13.7765 -13.7673 -13.7559 -13.7137 -13.7097
   -13.7041 -13.6952 -13.6764 -13.6602  -3.7461  -3.6707  -3.5315  -3.5140
    -1.6588  -1.6127  -1.5528  -1.4715  -1.3665  -1.3505  -1.2790  -1.2454
    -1.1535  -1.1319  -0.9046  -0.8500   0.1398   0.1739   0.4023   0.4574
     0.6710   0.6927   0.8220   0.8717   0.9157   0.9897   1.0703   1.1130
     1.1603   1.2020   1.3161   1.3702   1.5494   1.6414   1.6846   1.7326
     1.9400   2.0019   2.0371   2.0674   2.3133   2.3642   2.5844   2.6276
     2.9794   3.0836   3.1532   3.1640   3.8353   3.8433   3.9301   3.9505
     3.9879   4.0480   4.0765   4.0932   4.1199   4.1462   4.2309   4.2550
     4.3264   4.3561   4.4374   4.4562   4.4948   4.5650   4.7192   4.7403
     9.7791  10.3458  11.3975  11.6197  11.7318  11.9682  12.3398  12.4860
    12.6439  12.6700  12.7606  12.9807  13.0813  13.1421

     occupation numbers 
     1.0000   1.0000   1.0000   1.0000   1.0000   1.0000   1.0000   1.0000
     1.0000   1.0000   1.0000   1.0000   1.0000   1.0000   1.0000   1.0000
     1.0000   1.0000   1.0000   1.0000   1.0000   1.0000   1.0000   1.0000
     1.0000   1.0000   1.0000   1.0000   1.0000   1.0000   1.0000   1.0000
     1.0000   1.0000   1.0000   1.0000   1.0000   1.0000   1.0000   1.0000
     1.0000   1.0000   1.0000   1.0000   1.0000   1.0000   1.0000   1.0000
     1.0000   1.0000   1.0000   1.0000   1.0000   1.0000   1.0000   1.0000
     1.0000   1.0000   1.0000   1.0000   1.0000   1.0000   1.0000   1.0000
     1.0000   1.0000   1.0000   1.0000   1.0000   1.0000   1.0000   1.0000
     1.0000   1.0000   1.0000   1.0000   1.0000   1.0000   1.0000   1.0000
     1.0000   1.0000   1.0000   1.0000   1.0000   1.0000   1.0000   1.0000
     1.0000   1.0000   1.0000   1.0000   1.0000   1.0000   1.0000   1.0000
     1.0000   1.0000   1.0000   1.0000   1.0000   1.0000   1.0000   1.0000
     0.0000   0.0000   0.0000   0.0000   0.0000   0.0000   0.0000   0.0000
     0.0000   0.0000   0.0000   0.0000   0.0000   0.0000

          k = 0.3333-0.1646 0.2475 ( 22980 PWs)   bands (ev):

   -90.3577 -90.3576 -90.3552 -90.3551 -54.1619 -54.1618 -54.1595 -54.1594
   -53.9916 -53.9915 -53.9891 -53.9890 -53.8725 -53.8725 -53.8697 -53.8697
   -38.5250 -38.5250 -38.5211 -38.5210 -16.1690 -16.1425 -16.1308 -16.1187
   -13.8559 -13.8393 -13.8222 -13.8059 -13.7539 -13.7391 -13.7314 -13.7181
   -13.6889 -13.6771 -13.6719 -13.6620  -3.6824  -3.6266  -3.5695  -3.5522
    -1.6463  -1.6136  -1.5568  -1.4800  -1.3745  -1.3260  -1.2699  -1.2187
    -1.0895  -1.0570  -0.9588  -0.8967   0.1649   0.2673   0.3588   0.3899
     0.5867   0.7221   0.7632   0.7986   0.9076   0.9963   1.0276   1.1751
     1.2107   1.2652   1.3288   1.3650   1.5213   1.5805   1.6740   1.7261
     1.8292   1.8905   1.9355   2.1205   2.3634   2.5410   2.6275   2.7077
     2.8796   2.9773   3.0989   3.2200   3.7904   3.8373   3.9017   3.9331
     4.0250   4.0645   4.0951   4.1418   4.1647   4.2064   4.2225   4.2812
     4.3153   4.3490   4.4189   4.4568   4.5045   4.5750   4.6422   4.6914
    10.1712  10.6503  10.9802  11.2494  12.1241  12.2595  12.4211  12.5717
    12.7468  12.8438  12.9010  13.0519  13.1847  13.3600

     occupation numbers 
     1.0000   1.0000   1.0000   1.0000   1.0000   1.0000   1.0000   1.0000
     1.0000   1.0000   1.0000   1.0000   1.0000   1.0000   1.0000   1.0000
     1.0000   1.0000   1.0000   1.0000   1.0000   1.0000   1.0000   1.0000
     1.0000   1.0000   1.0000   1.0000   1.0000   1.0000   1.0000   1.0000
     1.0000   1.0000   1.0000   1.0000   1.0000   1.0000   1.0000   1.0000
     1.0000   1.0000   1.0000   1.0000   1.0000   1.0000   1.0000   1.0000
     1.0000   1.0000   1.0000   1.0000   1.0000   1.0000   1.0000   1.0000
     1.0000   1.0000   1.0000   1.0000   1.0000   1.0000   1.0000   1.0000
     1.0000   1.0000   1.0000   1.0000   1.0000   1.0000   1.0000   1.0000
     1.0000   1.0000   1.0000   1.0000   1.0000   1.0000   1.0000   1.0000
     1.0000   1.0000   1.0000   1.0000   1.0000   1.0000   1.0000   1.0000
     1.0000   1.0000   1.0000   1.0000   1.0000   1.0000   1.0000   1.0000
     1.0000   1.0000   1.0000   1.0000   1.0000   1.0000   1.0000   1.0000
     0.0000   0.0000   0.0000   0.0000   0.0000   0.0000   0.0000   0.0000
     0.0000   0.0000   0.0000   0.0000   0.0000   0.0000

          k = 0.3333-0.1646-0.2475 ( 22980 PWs)   bands (ev):

   -90.3577 -90.3576 -90.3552 -90.3551 -54.1619 -54.1618 -54.1595 -54.1594
   -53.9916 -53.9915 -53.9891 -53.9890 -53.8725 -53.8725 -53.8697 -53.8697
   -38.5250 -38.5250 -38.5211 -38.5210 -16.1690 -16.1425 -16.1308 -16.1187
   -13.8557 -13.8403 -13.8208 -13.8063 -13.7559 -13.7372 -13.7305 -13.7184
   -13.6880 -13.6783 -13.6735 -13.6607  -3.6824  -3.6264  -3.5691  -3.5528
    -1.6448  -1.6151  -1.5566  -1.4807  -1.3751  -1.3256  -1.2698  -1.2184
    -1.0884  -1.0571  -0.9598  -0.8964   0.1657   0.2672   0.3582   0.3895
     0.5862   0.7223   0.7623   0.8003   0.9081   0.9966   1.0278   1.1743
     1.2120   1.2635   1.3294   1.3638   1.5203   1.5811   1.6745   1.7260
     1.8297   1.8909   1.9366   2.1193   2.3635   2.5412   2.6270   2.7074
     2.8799   2.9770   3.0995   3.2198   3.7902   3.8377   3.9018   3.9327
     4.0254   4.0650   4.0941   4.1406   4.1646   4.2061   4.2229   4.2817
     4.3157   4.3502   4.4196   4.4566   4.5039   4.5745   4.6422   4.6913
    10.1712  10.6502  10.9802  11.2495  12.1238  12.2590  12.4211  12.5723
    12.7462  12.8432  12.9017  13.0521  13.1848  13.3544

     occupation numbers 
     1.0000   1.0000   1.0000   1.0000   1.0000   1.0000   1.0000   1.0000
     1.0000   1.0000   1.0000   1.0000   1.0000   1.0000   1.0000   1.0000
     1.0000   1.0000   1.0000   1.0000   1.0000   1.0000   1.0000   1.0000
     1.0000   1.0000   1.0000   1.0000   1.0000   1.0000   1.0000   1.0000
     1.0000   1.0000   1.0000   1.0000   1.0000   1.0000   1.0000   1.0000
     1.0000   1.0000   1.0000   1.0000   1.0000   1.0000   1.0000   1.0000
     1.0000   1.0000   1.0000   1.0000   1.0000   1.0000   1.0000   1.0000
     1.0000   1.0000   1.0000   1.0000   1.0000   1.0000   1.0000   1.0000
     1.0000   1.0000   1.0000   1.0000   1.0000   1.0000   1.0000   1.0000
     1.0000   1.0000   1.0000   1.0000   1.0000   1.0000   1.0000   1.0000
     1.0000   1.0000   1.0000   1.0000   1.0000   1.0000   1.0000   1.0000
     1.0000   1.0000   1.0000   1.0000   1.0000   1.0000   1.0000   1.0000
     1.0000   1.0000   1.0000   1.0000   1.0000   1.0000   1.0000   1.0000
     0.0000   0.0000   0.0000   0.0000   0.0000   0.0000   0.0000   0.0000
     0.0000   0.0000   0.0000   0.0000   0.0000   0.0000

 ------ SPIN DOWN ----------


          k = 0.0000 0.0000 0.0000 ( 23021 PWs)   bands (ev):

   -88.3956 -88.3955 -88.3931 -88.3930 -51.3311 -51.3311 -51.3286 -51.3285
   -51.2808 -51.2807 -51.2782 -51.2781 -51.2450 -51.2449 -51.2424 -51.2423
   -38.5233 -38.5232 -38.5194 -38.5192 -16.1699 -16.0559 -16.0466 -16.0127
   -13.7694 -13.7246 -13.6646 -13.6520 -13.6333 -13.6258 -13.5641 -13.5461
   -13.5384 -13.5318 -13.5064 -13.4788  -3.7759  -3.4917  -3.4335  -3.2604
    -1.6042  -1.4058  -1.3941  -1.3793  -1.2342  -1.1825  -1.1686  -1.0938
    -1.0837  -0.8655  -0.8612  -0.8036   0.6350   0.6693   0.7743   0.8656
     0.8945   1.0855   1.1006   1.2931   1.4116   1.4697   1.4973   1.6370
     1.6554   1.8175   1.8301   1.8390   1.9686   1.9915   2.0997   2.2696
     2.2887   2.5218   2.5339   2.5724   2.9064   2.9357   2.9552   3.0926
     3.1853   3.3367   3.3693   3.3726   5.5403   5.5814   5.5825   5.6625
     5.6919   5.7083   5.7107   5.8054   6.8605   6.8660   6.8847   6.9465
     6.9782   7.0079   7.0095   7.0475   7.1274   7.1447   7.1906   7.4010
     8.7950  10.4913  11.0253  12.2021  12.6681  12.7026  12.8193  13.0453
    13.0798  13.1691  13.2706  13.4035  13.5953  13.7455

     occupation numbers 
     1.0000   1.0000   1.0000   1.0000   1.0000   1.0000   1.0000   1.0000
     1.0000   1.0000   1.0000   1.0000   1.0000   1.0000   1.0000   1.0000
     1.0000   1.0000   1.0000   1.0000   1.0000   1.0000   1.0000   1.0000
     1.0000   1.0000   1.0000   1.0000   1.0000   1.0000   1.0000   1.0000
     1.0000   1.0000   1.0000   1.0000   1.0000   1.0000   1.0000   1.0000
     1.0000   1.0000   1.0000   1.0000   1.0000   1.0000   1.0000   1.0000
     1.0000   1.0000   1.0000   1.0000   1.0000   1.0000   1.0000   1.0000
     1.0000   1.0000   1.0000   1.0000   1.0000   1.0000   1.0000   1.0000
     1.0000   1.0000   1.0000   1.0000   1.0000   1.0000   1.0000   1.0000
     1.0000   1.0000   1.0000   1.0000   1.0000   1.0000   1.0000   1.0000
     1.0000   1.0000   1.0000   1.0000   1.0000   1.0000   1.0000   1.0000
     1.0000   1.0000   1.0000   1.0000   0.0000   0.0000   0.0000   0.0000
     0.0000   0.0000   0.0000   0.0000   0.0000   0.0000   0.0000   0.0000
     0.0000   0.0000   0.0000   0.0000   0.0000   0.0000   0.0000   0.0000
     0.0000   0.0000   0.0000   0.0000   0.0000   0.0000

          k = 0.0000-0.0000 0.2475 ( 23002 PWs)   bands (ev):

   -88.3956 -88.3955 -88.3931 -88.3930 -51.3311 -51.3311 -51.3286 -51.3285
   -51.2808 -51.2807 -51.2782 -51.2781 -51.2450 -51.2449 -51.2424 -51.2423
   -38.5233 -38.5233 -38.5194 -38.5193 -16.1321 -16.0538 -16.0523 -16.0479
   -13.7651 -13.7296 -13.6951 -13.6484 -13.6132 -13.5936 -13.5748 -13.5661
   -13.5298 -13.5174 -13.5139 -13.4907  -3.6496  -3.4647  -3.4350  -3.3920
    -1.5728  -1.4684  -1.3471  -1.3348  -1.2758  -1.2379  -1.2202  -1.1675
    -0.9289  -0.8382  -0.8128  -0.7697   0.6310   0.6435   0.7869   0.8311
     0.8962   0.9624   1.0032   1.3870   1.4248   1.5402   1.5627   1.6155
     1.7284   1.7329   1.8014   1.8116   2.0059   2.0343   2.0738   2.1749
     2.3407   2.4783   2.5307   2.5412   2.8267   2.9514   3.0058   3.0346
     3.2586   3.2754   3.2903   3.4157   5.5611   5.5820   5.5944   5.6381
     5.6858   5.6951   5.7467   5.7934   6.8654   6.8879   6.8994   6.9316
     6.9722   6.9860   6.9864   7.0174   7.1078   7.1128   7.2463   7.3618
     9.4332  10.8456  10.8465  11.1970  12.3398  12.5131  13.1044  13.1809
    13.2107  13.3280  13.7126  13.7353  13.7606  13.9277

     occupation numbers 
     1.0000   1.0000   1.0000   1.0000   1.0000   1.0000   1.0000   1.0000
     1.0000   1.0000   1.0000   1.0000   1.0000   1.0000   1.0000   1.0000
     1.0000   1.0000   1.0000   1.0000   1.0000   1.0000   1.0000   1.0000
     1.0000   1.0000   1.0000   1.0000   1.0000   1.0000   1.0000   1.0000
     1.0000   1.0000   1.0000   1.0000   1.0000   1.0000   1.0000   1.0000
     1.0000   1.0000   1.0000   1.0000   1.0000   1.0000   1.0000   1.0000
     1.0000   1.0000   1.0000   1.0000   1.0000   1.0000   1.0000   1.0000
     1.0000   1.0000   1.0000   1.0000   1.0000   1.0000   1.0000   1.0000
     1.0000   1.0000   1.0000   1.0000   1.0000   1.0000   1.0000   1.0000
     1.0000   1.0000   1.0000   1.0000   1.0000   1.0000   1.0000   1.0000
     1.0000   1.0000   1.0000   1.0000   1.0000   1.0000   1.0000   1.0000
     1.0000   1.0000   1.0000   1.0000   0.0000   0.0000   0.0000   0.0000
     0.0000   0.0000   0.0000   0.0000   0.0000   0.0000   0.0000   0.0000
     0.0000   0.0000   0.0000   0.0000   0.0000   0.0000   0.0000   0.0000
     0.0000   0.0000   0.0000   0.0000   0.0000   0.0000

          k =-0.0000 0.1646 0.0000 ( 22999 PWs)   bands (ev):

   -88.3956 -88.3955 -88.3931 -88.3930 -51.3311 -51.3311 -51.3286 -51.3285
   -51.2808 -51.2807 -51.2782 -51.2781 -51.2450 -51.2449 -51.2424 -51.2423
   -38.5233 -38.5232 -38.5194 -38.5192 -16.1502 -16.1021 -16.0208 -16.0127
   -13.7522 -13.7291 -13.6645 -13.6505 -13.6421 -13.6271 -13.5594 -13.5500
   -13.5405 -13.5368 -13.4984 -13.4844  -3.7294  -3.6110  -3.3395  -3.2765
    -1.5374  -1.4300  -1.3543  -1.3454  -1.2650  -1.2432  -1.1482  -1.0833
    -1.0760  -1.0260  -0.8427  -0.7908   0.6598   0.7048   0.7156   0.7803
     1.0662   1.0886   1.2192   1.2758   1.3588   1.4935   1.5215   1.6710
     1.6790   1.6985   1.8163   1.8246   1.9717   1.9837   2.1231   2.1923
     2.3496   2.4520   2.5568   2.5682   2.9098   2.9242   2.9864   3.0480
     3.2369   3.3180   3.3498   3.3724   5.5564   5.5762   5.5998   5.6387
     5.6913   5.7049   5.7419   5.7871   6.8576   6.8629   6.9146   6.9459
     6.9780   6.9822   7.0366   7.0715   7.1263   7.1549   7.1923   7.3299
     9.0870   9.8053  11.6743  12.1688  12.4563  12.5100  12.8759  12.9511
    13.1979  13.2069  13.4002  13.4430  13.6562  13.8076

     occupation numbers 
     1.0000   1.0000   1.0000   1.0000   1.0000   1.0000   1.0000   1.0000
     1.0000   1.0000   1.0000   1.0000   1.0000   1.0000   1.0000   1.0000
     1.0000   1.0000   1.0000   1.0000   1.0000   1.0000   1.0000   1.0000
     1.0000   1.0000   1.0000   1.0000   1.0000   1.0000   1.0000   1.0000
     1.0000   1.0000   1.0000   1.0000   1.0000   1.0000   1.0000   1.0000
     1.0000   1.0000   1.0000   1.0000   1.0000   1.0000   1.0000   1.0000
     1.0000   1.0000   1.0000   1.0000   1.0000   1.0000   1.0000   1.0000
     1.0000   1.0000   1.0000   1.0000   1.0000   1.0000   1.0000   1.0000
     1.0000   1.0000   1.0000   1.0000   1.0000   1.0000   1.0000   1.0000
     1.0000   1.0000   1.0000   1.0000   1.0000   1.0000   1.0000   1.0000
     1.0000   1.0000   1.0000   1.0000   1.0000   1.0000   1.0000   1.0000
     1.0000   1.0000   1.0000   1.0000   0.0000   0.0000   0.0000   0.0000
     0.0000   0.0000   0.0000   0.0000   0.0000   0.0000   0.0000   0.0000
     0.0000   0.0000   0.0000   0.0000   0.0000   0.0000   0.0000   0.0000
     0.0000   0.0000   0.0000   0.0000   0.0000   0.0000

          k = 0.0000 0.1646 0.2475 ( 23010 PWs)   bands (ev):

   -88.3956 -88.3955 -88.3931 -88.3930 -51.3311 -51.3311 -51.3286 -51.3285
   -51.2808 -51.2807 -51.2782 -51.2781 -51.2450 -51.2449 -51.2424 -51.2423
   -38.5233 -38.5233 -38.5194 -38.5193 -16.1168 -16.0815 -16.0480 -16.0407
   -13.7452 -13.7113 -13.7090 -13.6716 -13.6074 -13.5987 -13.5749 -13.5701
   -13.5264 -13.5205 -13.5070 -13.4951  -3.6155  -3.5350  -3.3983  -3.3886
    -1.5116  -1.4202  -1.3984  -1.3355  -1.2920  -1.2677  -1.1853  -1.1646
    -0.9431  -0.9026  -0.8335  -0.7957   0.6825   0.7087   0.7567   0.7861
     0.9545   1.0372   1.1096   1.3175   1.4104   1.4298   1.5480   1.5639
     1.7267   1.7405   1.8143   1.8154   2.0237   2.0368   2.1043   2.1488
     2.3862   2.4733   2.4938   2.5286   2.8567   2.9294   2.9908   3.0625
     3.2131   3.2518   3.3548   3.4010   5.5733   5.5887   5.5939   5.6226
     5.6984   5.7248   5.7316   5.7724   6.8695   6.8803   6.9246   6.9334
     6.9679   6.9692   7.0103   7.0304   7.1255   7.1723   7.1990   7.2973
     9.6612  10.2595  10.9548  11.2291  12.4743  13.0149  13.0545  13.1729
    13.2526  13.4643  13.5251  13.6512  13.7253  13.7920

     occupation numbers 
     1.0000   1.0000   1.0000   1.0000   1.0000   1.0000   1.0000   1.0000
     1.0000   1.0000   1.0000   1.0000   1.0000   1.0000   1.0000   1.0000
     1.0000   1.0000   1.0000   1.0000   1.0000   1.0000   1.0000   1.0000
     1.0000   1.0000   1.0000   1.0000   1.0000   1.0000   1.0000   1.0000
     1.0000   1.0000   1.0000   1.0000   1.0000   1.0000   1.0000   1.0000
     1.0000   1.0000   1.0000   1.0000   1.0000   1.0000   1.0000   1.0000
     1.0000   1.0000   1.0000   1.0000   1.0000   1.0000   1.0000   1.0000
     1.0000   1.0000   1.0000   1.0000   1.0000   1.0000   1.0000   1.0000
     1.0000   1.0000   1.0000   1.0000   1.0000   1.0000   1.0000   1.0000
     1.0000   1.0000   1.0000   1.0000   1.0000   1.0000   1.0000   1.0000
     1.0000   1.0000   1.0000   1.0000   1.0000   1.0000   1.0000   1.0000
     1.0000   1.0000   1.0000   1.0000   0.0000   0.0000   0.0000   0.0000
     0.0000   0.0000   0.0000   0.0000   0.0000   0.0000   0.0000   0.0000
     0.0000   0.0000   0.0000   0.0000   0.0000   0.0000   0.0000   0.0000
     0.0000   0.0000   0.0000   0.0000   0.0000   0.0000

          k =-0.0000 0.1646-0.2475 ( 23008 PWs)   bands (ev):

   -88.3956 -88.3955 -88.3931 -88.3930 -51.3311 -51.3311 -51.3286 -51.3285
   -51.2808 -51.2807 -51.2782 -51.2781 -51.2450 -51.2449 -51.2424 -51.2423
   -38.5233 -38.5233 -38.5194 -38.5193 -16.1168 -16.0815 -16.0480 -16.0407
   -13.7452 -13.7113 -13.7090 -13.6716 -13.6074 -13.5986 -13.5748 -13.5701
   -13.5264 -13.5205 -13.5070 -13.4951  -3.6155  -3.5350  -3.3983  -3.3887
    -1.5116  -1.4202  -1.3984  -1.3355  -1.2920  -1.2676  -1.1854  -1.1646
    -0.9431  -0.9026  -0.8335  -0.7957   0.6825   0.7087   0.7567   0.7861
     0.9545   1.0371   1.1095   1.3176   1.4104   1.4298   1.5480   1.5640
     1.7267   1.7405   1.8142   1.8154   2.0237   2.0368   2.1043   2.1488
     2.3863   2.4733   2.4938   2.5286   2.8568   2.9294   2.9908   3.0626
     3.2131   3.2518   3.3548   3.4010   5.5733   5.5887   5.5939   5.6226
     5.6984   5.7248   5.7316   5.7724   6.8695   6.8803   6.9246   6.9333
     6.9680   6.9692   7.0103   7.0304   7.1255   7.1723   7.1990   7.2973
     9.6612  10.2595  10.9547  11.2291  12.4742  13.0149  13.0545  13.1729
    13.2526  13.4641  13.5251  13.6513  13.7253  13.7921

     occupation numbers 
     1.0000   1.0000   1.0000   1.0000   1.0000   1.0000   1.0000   1.0000
     1.0000   1.0000   1.0000   1.0000   1.0000   1.0000   1.0000   1.0000
     1.0000   1.0000   1.0000   1.0000   1.0000   1.0000   1.0000   1.0000
     1.0000   1.0000   1.0000   1.0000   1.0000   1.0000   1.0000   1.0000
     1.0000   1.0000   1.0000   1.0000   1.0000   1.0000   1.0000   1.0000
     1.0000   1.0000   1.0000   1.0000   1.0000   1.0000   1.0000   1.0000
     1.0000   1.0000   1.0000   1.0000   1.0000   1.0000   1.0000   1.0000
     1.0000   1.0000   1.0000   1.0000   1.0000   1.0000   1.0000   1.0000
     1.0000   1.0000   1.0000   1.0000   1.0000   1.0000   1.0000   1.0000
     1.0000   1.0000   1.0000   1.0000   1.0000   1.0000   1.0000   1.0000
     1.0000   1.0000   1.0000   1.0000   1.0000   1.0000   1.0000   1.0000
     1.0000   1.0000   1.0000   1.0000   0.0000   0.0000   0.0000   0.0000
     0.0000   0.0000   0.0000   0.0000   0.0000   0.0000   0.0000   0.0000
     0.0000   0.0000   0.0000   0.0000   0.0000   0.0000   0.0000   0.0000
     0.0000   0.0000   0.0000   0.0000   0.0000   0.0000

          k = 0.3333-0.0000 0.0000 ( 22947 PWs)   bands (ev):

   -88.3956 -88.3955 -88.3931 -88.3930 -51.3311 -51.3311 -51.3286 -51.3285
   -51.2808 -51.2808 -51.2782 -51.2781 -51.2450 -51.2449 -51.2424 -51.2423
   -38.5233 -38.5233 -38.5194 -38.5192 -16.1008 -16.0287 -16.0133 -16.0090
   -13.7578 -13.7181 -13.6775 -13.6467 -13.6446 -13.6204 -13.5952 -13.5880
   -13.5822 -13.5701 -13.5525 -13.5262  -3.6449  -3.4441  -3.4208  -3.3549
    -1.4983  -1.4592  -1.4043  -1.2918  -1.1533  -1.0765  -0.9932  -0.9202
    -0.9160  -0.8662  -0.7861  -0.6268   0.4089   0.4626   0.8138   0.8764
     0.9141   0.9734   1.1087   1.2047   1.2542   1.3709   1.4038   1.4410
     1.5728   1.6417   1.6738   1.7468   1.8360   1.9413   2.0410   2.1248
     2.4357   2.5180   2.6001   2.6003   2.9507   2.9552   3.0477   3.1998
     3.2327   3.3147   3.4287   3.4625   5.4842   5.4975   5.5888   5.6037
     5.6697   5.6772   5.7028   5.7414   6.8830   6.8920   6.9071   6.9704
     7.0484   7.0567   7.1081   7.1286   7.2079   7.2560   7.2920   7.3550
     9.8351  11.1027  11.5408  11.6532  12.3197  12.3556  12.5210  12.6739
    12.7467  12.7783  12.8859  13.3333  13.3636  13.4051

     occupation numbers 
     1.0000   1.0000   1.0000   1.0000   1.0000   1.0000   1.0000   1.0000
     1.0000   1.0000   1.0000   1.0000   1.0000   1.0000   1.0000   1.0000
     1.0000   1.0000   1.0000   1.0000   1.0000   1.0000   1.0000   1.0000
     1.0000   1.0000   1.0000   1.0000   1.0000   1.0000   1.0000   1.0000
     1.0000   1.0000   1.0000   1.0000   1.0000   1.0000   1.0000   1.0000
     1.0000   1.0000   1.0000   1.0000   1.0000   1.0000   1.0000   1.0000
     1.0000   1.0000   1.0000   1.0000   1.0000   1.0000   1.0000   1.0000
     1.0000   1.0000   1.0000   1.0000   1.0000   1.0000   1.0000   1.0000
     1.0000   1.0000   1.0000   1.0000   1.0000   1.0000   1.0000   1.0000
     1.0000   1.0000   1.0000   1.0000   1.0000   1.0000   1.0000   1.0000
     1.0000   1.0000   1.0000   1.0000   1.0000   1.0000   1.0000   1.0000
     1.0000   1.0000   1.0000   1.0000   0.0000   0.0000   0.0000   0.0000
     0.0000   0.0000   0.0000   0.0000   0.0000   0.0000   0.0000   0.0000
     0.0000   0.0000   0.0000   0.0000   0.0000   0.0000   0.0000   0.0000
     0.0000   0.0000   0.0000   0.0000   0.0000   0.0000

          k = 0.3333-0.0000 0.2475 ( 23007 PWs)   bands (ev):

   -88.3956 -88.3955 -88.3931 -88.3930 -51.3311 -51.3311 -51.3286 -51.3285
   -51.2808 -51.2807 -51.2782 -51.2781 -51.2450 -51.2449 -51.2424 -51.2423
   -38.5233 -38.5233 -38.5194 -38.5192 -16.0794 -16.0393 -16.0164 -16.0146
   -13.7477 -13.7250 -13.6972 -13.6722 -13.6329 -13.6207 -13.6053 -13.5863
   -13.5684 -13.5545 -13.5446 -13.5305  -3.5696  -3.4395  -3.4118  -3.4085
    -1.4878  -1.4736  -1.3361  -1.2382  -1.1994  -1.0954  -0.9864  -0.9389
    -0.8885  -0.8409  -0.7507  -0.6843   0.4910   0.5286   0.7367   0.7379
     0.8974   0.9691   1.1020   1.1455   1.2125   1.2533   1.4678   1.4718
     1.6304   1.6343   1.6538   1.7406   1.9059   1.9312   1.9833   2.0673
     2.4488   2.5199   2.5796   2.5972   2.8939   2.9783   3.1233   3.1351
     3.3032   3.3309   3.4024   3.4655   5.5091   5.5209   5.5823   5.5856
     5.6800   5.6810   5.7015   5.7265   6.8348   6.8455   6.9298   6.9524
     7.0409   7.0450   7.1392   7.1471   7.2144   7.2382   7.3038   7.3458
    10.2853  11.1903  11.4162  11.6652  12.2489  12.2605  12.7247  12.8426
    12.8523  12.9902  13.0768  13.3783  13.4843  13.6150

     occupation numbers 
     1.0000   1.0000   1.0000   1.0000   1.0000   1.0000   1.0000   1.0000
     1.0000   1.0000   1.0000   1.0000   1.0000   1.0000   1.0000   1.0000
     1.0000   1.0000   1.0000   1.0000   1.0000   1.0000   1.0000   1.0000
     1.0000   1.0000   1.0000   1.0000   1.0000   1.0000   1.0000   1.0000
     1.0000   1.0000   1.0000   1.0000   1.0000   1.0000   1.0000   1.0000
     1.0000   1.0000   1.0000   1.0000   1.0000   1.0000   1.0000   1.0000
     1.0000   1.0000   1.0000   1.0000   1.0000   1.0000   1.0000   1.0000
     1.0000   1.0000   1.0000   1.0000   1.0000   1.0000   1.0000   1.0000
     1.0000   1.0000   1.0000   1.0000   1.0000   1.0000   1.0000   1.0000
     1.0000   1.0000   1.0000   1.0000   1.0000   1.0000   1.0000   1.0000
     1.0000   1.0000   1.0000   1.0000   1.0000   1.0000   1.0000   1.0000
     1.0000   1.0000   1.0000   1.0000   0.0000   0.0000   0.0000   0.0000
     0.0000   0.0000   0.0000   0.0000   0.0000   0.0000   0.0000   0.0000
     0.0000   0.0000   0.0000   0.0000   0.0000   0.0000   0.0000   0.0000
     0.0000   0.0000   0.0000   0.0000   0.0000   0.0000

          k = 0.3333 0.0000-0.2475 ( 23008 PWs)   bands (ev):

   -88.3956 -88.3955 -88.3931 -88.3930 -51.3311 -51.3311 -51.3286 -51.3285
   -51.2808 -51.2808 -51.2782 -51.2781 -51.2450 -51.2449 -51.2424 -51.2423
   -38.5233 -38.5233 -38.5194 -38.5192 -16.0794 -16.0394 -16.0164 -16.0146
   -13.7478 -13.7258 -13.6951 -13.6730 -13.6357 -13.6182 -13.6047 -13.5870
   -13.5661 -13.5564 -13.5459 -13.5295  -3.5696  -3.4391  -3.4119  -3.4088
    -1.4865  -1.4751  -1.3354  -1.2393  -1.1999  -1.0946  -0.9863  -0.9386
    -0.8878  -0.8414  -0.7516  -0.6839   0.4917   0.5282   0.7364   0.7378
     0.8976   0.9684   1.1008   1.1466   1.2133   1.2542   1.4680   1.4706
     1.6292   1.6343   1.6542   1.7413   1.9062   1.9311   1.9834   2.0671
     2.4493   2.5194   2.5800   2.5969   2.8939   2.9785   3.1218   3.1361
     3.3034   3.3306   3.4035   3.4648   5.5092   5.5207   5.5824   5.5858
     5.6794   5.6822   5.6998   5.7273   6.8369   6.8440   6.9275   6.9543
     7.0413   7.0447   7.1397   7.1455   7.2146   7.2398   7.3024   7.3462
    10.2853  11.1900  11.4167  11.6656  12.2482  12.2598  12.7249  12.8427
    12.8519  12.9914  13.0762  13.3786  13.4850  13.6143

     occupation numbers 
     1.0000   1.0000   1.0000   1.0000   1.0000   1.0000   1.0000   1.0000
     1.0000   1.0000   1.0000   1.0000   1.0000   1.0000   1.0000   1.0000
     1.0000   1.0000   1.0000   1.0000   1.0000   1.0000   1.0000   1.0000
     1.0000   1.0000   1.0000   1.0000   1.0000   1.0000   1.0000   1.0000
     1.0000   1.0000   1.0000   1.0000   1.0000   1.0000   1.0000   1.0000
     1.0000   1.0000   1.0000   1.0000   1.0000   1.0000   1.0000   1.0000
     1.0000   1.0000   1.0000   1.0000   1.0000   1.0000   1.0000   1.0000
     1.0000   1.0000   1.0000   1.0000   1.0000   1.0000   1.0000   1.0000
     1.0000   1.0000   1.0000   1.0000   1.0000   1.0000   1.0000   1.0000
     1.0000   1.0000   1.0000   1.0000   1.0000   1.0000   1.0000   1.0000
     1.0000   1.0000   1.0000   1.0000   1.0000   1.0000   1.0000   1.0000
     1.0000   1.0000   1.0000   1.0000   0.0000   0.0000   0.0000   0.0000
     0.0000   0.0000   0.0000   0.0000   0.0000   0.0000   0.0000   0.0000
     0.0000   0.0000   0.0000   0.0000   0.0000   0.0000   0.0000   0.0000
     0.0000   0.0000   0.0000   0.0000   0.0000   0.0000

          k = 0.3333 0.1646 0.0000 ( 22949 PWs)   bands (ev):

   -88.3956 -88.3955 -88.3931 -88.3930 -51.3311 -51.3311 -51.3286 -51.3285
   -51.2808 -51.2808 -51.2782 -51.2781 -51.2450 -51.2449 -51.2424 -51.2423
   -38.5233 -38.5233 -38.5194 -38.5192 -16.0856 -16.0510 -16.0115 -16.0047
   -13.7427 -13.7214 -13.6696 -13.6537 -13.6436 -13.6318 -13.5899 -13.5861
   -13.5793 -13.5712 -13.5531 -13.5364  -3.6091  -3.5235  -3.3735  -3.3545
    -1.4683  -1.4249  -1.3788  -1.2762  -1.1396  -1.0903  -1.0428  -1.0051
    -0.9566  -0.9217  -0.7097  -0.6488   0.4312   0.4618   0.8425   0.9018
     0.9822   1.0041   1.1614   1.1988   1.2156   1.3199   1.3888   1.4162
     1.5782   1.6367   1.6896   1.7561   1.8647   1.9144   2.0211   2.0670
     2.4722   2.5323   2.5702   2.5985   2.9484   2.9560   3.0801   3.1465
     3.2808   3.3138   3.4206   3.4390   5.4969   5.5046   5.5875   5.5956
     5.6656   5.6699   5.7202   5.7377   6.8773   6.8934   6.9361   6.9764
     7.0568   7.0872   7.1190   7.1415   7.1917   7.2421   7.2752   7.3023
    10.0562  10.6132  11.7037  11.8559  12.1184  12.2860  12.5760  12.6861
    12.8334  12.8633  12.9723  13.2367  13.3533  13.4221

     occupation numbers 
     1.0000   1.0000   1.0000   1.0000   1.0000   1.0000   1.0000   1.0000
     1.0000   1.0000   1.0000   1.0000   1.0000   1.0000   1.0000   1.0000
     1.0000   1.0000   1.0000   1.0000   1.0000   1.0000   1.0000   1.0000
     1.0000   1.0000   1.0000   1.0000   1.0000   1.0000   1.0000   1.0000
     1.0000   1.0000   1.0000   1.0000   1.0000   1.0000   1.0000   1.0000
     1.0000   1.0000   1.0000   1.0000   1.0000   1.0000   1.0000   1.0000
     1.0000   1.0000   1.0000   1.0000   1.0000   1.0000   1.0000   1.0000
     1.0000   1.0000   1.0000   1.0000   1.0000   1.0000   1.0000   1.0000
     1.0000   1.0000   1.0000   1.0000   1.0000   1.0000   1.0000   1.0000
     1.0000   1.0000   1.0000   1.0000   1.0000   1.0000   1.0000   1.0000
     1.0000   1.0000   1.0000   1.0000   1.0000   1.0000   1.0000   1.0000
     1.0000   1.0000   1.0000   1.0000   0.0000   0.0000   0.0000   0.0000
     0.0000   0.0000   0.0000   0.0000   0.0000   0.0000   0.0000   0.0000
     0.0000   0.0000   0.0000   0.0000   0.0000   0.0000   0.0000   0.0000
     0.0000   0.0000   0.0000   0.0000   0.0000   0.0000

          k = 0.3333 0.1646 0.2475 ( 22980 PWs)   bands (ev):

   -88.3956 -88.3955 -88.3931 -88.3930 -51.3311 -51.3311 -51.3286 -51.3285
   -51.2808 -51.2807 -51.2782 -51.2781 -51.2450 -51.2449 -51.2424 -51.2423
   -38.5233 -38.5233 -38.5194 -38.5192 -16.0666 -16.0399 -16.0282 -16.0160
   -13.7338 -13.7174 -13.6997 -13.6836 -13.6299 -13.6152 -13.6070 -13.5934
   -13.5654 -13.5535 -13.5480 -13.5377  -3.5404  -3.4756  -3.4151  -3.3961
    -1.4579  -1.4252  -1.3568  -1.2593  -1.1487  -1.0835  -1.0228  -0.9928
    -0.9215  -0.8455  -0.7673  -0.6957   0.4574   0.5887   0.6806   0.7958
     0.9599   1.0069   1.0847   1.1189   1.2429   1.2942   1.4394   1.4771
     1.5856   1.6093   1.6845   1.7376   1.8678   1.9463   1.9985   2.0241
     2.4709   2.5356   2.5673   2.5837   2.9048   3.0167   3.0753   3.1390
     3.2774   3.3364   3.4170   3.4601   5.5149   5.5368   5.5738   5.5831
     5.6782   5.6842   5.7016   5.7237   6.8480   6.8751   6.9143   6.9488
     7.0623   7.0867   7.1381   7.1656   7.1958   7.2311   7.2721   7.3006
    10.4641  10.9354  11.3083  11.5496  12.4064  12.5087  12.6705  12.7853
    12.9692  13.0496  13.1279  13.2741  13.4502  13.5998

     occupation numbers 
     1.0000   1.0000   1.0000   1.0000   1.0000   1.0000   1.0000   1.0000
     1.0000   1.0000   1.0000   1.0000   1.0000   1.0000   1.0000   1.0000
     1.0000   1.0000   1.0000   1.0000   1.0000   1.0000   1.0000   1.0000
     1.0000   1.0000   1.0000   1.0000   1.0000   1.0000   1.0000   1.0000
     1.0000   1.0000   1.0000   1.0000   1.0000   1.0000   1.0000   1.0000
     1.0000   1.0000   1.0000   1.0000   1.0000   1.0000   1.0000   1.0000
     1.0000   1.0000   1.0000   1.0000   1.0000   1.0000   1.0000   1.0000
     1.0000   1.0000   1.0000   1.0000   1.0000   1.0000   1.0000   1.0000
     1.0000   1.0000   1.0000   1.0000   1.0000   1.0000   1.0000   1.0000
     1.0000   1.0000   1.0000   1.0000   1.0000   1.0000   1.0000   1.0000
     1.0000   1.0000   1.0000   1.0000   1.0000   1.0000   1.0000   1.0000
     1.0000   1.0000   1.0000   1.0000   0.0000   0.0000   0.0000   0.0000
     0.0000   0.0000   0.0000   0.0000   0.0000   0.0000   0.0000   0.0000
     0.0000   0.0000   0.0000   0.0000   0.0000   0.0000   0.0000   0.0000
     0.0000   0.0000   0.0000   0.0000   0.0000   0.0000

          k = 0.3333 0.1646-0.2475 ( 22980 PWs)   bands (ev):

   -88.3956 -88.3955 -88.3931 -88.3930 -51.3311 -51.3311 -51.3286 -51.3285
   -51.2808 -51.2808 -51.2782 -51.2781 -51.2450 -51.2449 -51.2424 -51.2423
   -38.5233 -38.5233 -38.5194 -38.5192 -16.0666 -16.0399 -16.0282 -16.0159
   -13.7336 -13.7184 -13.6983 -13.6840 -13.6319 -13.6133 -13.6061 -13.5935
   -13.5646 -13.5547 -13.5498 -13.5362  -3.5404  -3.4754  -3.4149  -3.3964
    -1.4566  -1.4268  -1.3564  -1.2602  -1.1493  -1.0828  -1.0227  -0.9926
    -0.9203  -0.8459  -0.7683  -0.6953   0.4581   0.5883   0.6803   0.7956
     0.9600   1.0063   1.0848   1.1193   1.2438   1.2951   1.4384   1.4765
     1.5849   1.6100   1.6836   1.7386   1.8674   1.9465   1.9988   2.0238
     2.4716   2.5349   2.5679   2.5831   2.9050   3.0167   3.0747   3.1390
     3.2774   3.3369   3.4176   3.4593   5.5151   5.5362   5.5743   5.5832
     5.6782   5.6846   5.7001   5.7244   6.8495   6.8742   6.9129   6.9497
     7.0630   7.0862   7.1371   7.1653   7.1968   7.2320   7.2708   7.3011
    10.4641  10.9353  11.3084  11.5497  12.4058  12.5081  12.6705  12.7858
    12.9688  13.0499  13.1282  13.2741  13.4511  13.6004

     occupation numbers 
     1.0000   1.0000   1.0000   1.0000   1.0000   1.0000   1.0000   1.0000
     1.0000   1.0000   1.0000   1.0000   1.0000   1.0000   1.0000   1.0000
     1.0000   1.0000   1.0000   1.0000   1.0000   1.0000   1.0000   1.0000
     1.0000   1.0000   1.0000   1.0000   1.0000   1.0000   1.0000   1.0000
     1.0000   1.0000   1.0000   1.0000   1.0000   1.0000   1.0000   1.0000
     1.0000   1.0000   1.0000   1.0000   1.0000   1.0000   1.0000   1.0000
     1.0000   1.0000   1.0000   1.0000   1.0000   1.0000   1.0000   1.0000
     1.0000   1.0000   1.0000   1.0000   1.0000   1.0000   1.0000   1.0000
     1.0000   1.0000   1.0000   1.0000   1.0000   1.0000   1.0000   1.0000
     1.0000   1.0000   1.0000   1.0000   1.0000   1.0000   1.0000   1.0000
     1.0000   1.0000   1.0000   1.0000   1.0000   1.0000   1.0000   1.0000
     1.0000   1.0000   1.0000   1.0000   0.0000   0.0000   0.0000   0.0000
     0.0000   0.0000   0.0000   0.0000   0.0000   0.0000   0.0000   0.0000
     0.0000   0.0000   0.0000   0.0000   0.0000   0.0000   0.0000   0.0000
     0.0000   0.0000   0.0000   0.0000   0.0000   0.0000

          k = 0.3333-0.1646 0.0000 ( 22949 PWs)   bands (ev):

   -88.3956 -88.3955 -88.3931 -88.3930 -51.3311 -51.3311 -51.3286 -51.3285
   -51.2808 -51.2808 -51.2782 -51.2781 -51.2450 -51.2449 -51.2424 -51.2423
   -38.5233 -38.5233 -38.5194 -38.5192 -16.0855 -16.0510 -16.0114 -16.0047
   -13.7427 -13.7214 -13.6696 -13.6537 -13.6436 -13.6318 -13.5899 -13.5860
   -13.5793 -13.5712 -13.5530 -13.5364  -3.6091  -3.5235  -3.3735  -3.3545
    -1.4682  -1.4249  -1.3788  -1.2762  -1.1395  -1.0903  -1.0427  -1.0052
    -0.9566  -0.9217  -0.7097  -0.6488   0.4313   0.4618   0.8425   0.9018
     0.9822   1.0041   1.1613   1.1989   1.2156   1.3199   1.3887   1.4163
     1.5783   1.6366   1.6896   1.7562   1.8647   1.9144   2.0211   2.0671
     2.4722   2.5322   2.5701   2.5986   2.9484   2.9559   3.0801   3.1465
     3.2808   3.3137   3.4206   3.4390   5.4969   5.5046   5.5875   5.5955
     5.6656   5.6700   5.7201   5.7377   6.8773   6.8934   6.9361   6.9764
     7.0568   7.0872   7.1191   7.1415   7.1917   7.2421   7.2752   7.3023
    10.0562  10.6131  11.7037  11.8559  12.1184  12.2859  12.5760  12.6862
    12.8333  12.8635  12.9723  13.2368  13.3531  13.4221

     occupation numbers 
     1.0000   1.0000   1.0000   1.0000   1.0000   1.0000   1.0000   1.0000
     1.0000   1.0000   1.0000   1.0000   1.0000   1.0000   1.0000   1.0000
     1.0000   1.0000   1.0000   1.0000   1.0000   1.0000   1.0000   1.0000
     1.0000   1.0000   1.0000   1.0000   1.0000   1.0000   1.0000   1.0000
     1.0000   1.0000   1.0000   1.0000   1.0000   1.0000   1.0000   1.0000
     1.0000   1.0000   1.0000   1.0000   1.0000   1.0000   1.0000   1.0000
     1.0000   1.0000   1.0000   1.0000   1.0000   1.0000   1.0000   1.0000
     1.0000   1.0000   1.0000   1.0000   1.0000   1.0000   1.0000   1.0000
     1.0000   1.0000   1.0000   1.0000   1.0000   1.0000   1.0000   1.0000
     1.0000   1.0000   1.0000   1.0000   1.0000   1.0000   1.0000   1.0000
     1.0000   1.0000   1.0000   1.0000   1.0000   1.0000   1.0000   1.0000
     1.0000   1.0000   1.0000   1.0000   0.0000   0.0000   0.0000   0.0000
     0.0000   0.0000   0.0000   0.0000   0.0000   0.0000   0.0000   0.0000
     0.0000   0.0000   0.0000   0.0000   0.0000   0.0000   0.0000   0.0000
     0.0000   0.0000   0.0000   0.0000   0.0000   0.0000

          k = 0.3333-0.1646 0.2475 ( 22980 PWs)   bands (ev):

   -88.3956 -88.3955 -88.3931 -88.3930 -51.3311 -51.3311 -51.3286 -51.3285
   -51.2808 -51.2807 -51.2782 -51.2781 -51.2450 -51.2449 -51.2424 -51.2423
   -38.5233 -38.5233 -38.5194 -38.5192 -16.0666 -16.0399 -16.0282 -16.0160
   -13.7338 -13.7174 -13.6997 -13.6836 -13.6300 -13.6152 -13.6070 -13.5934
   -13.5654 -13.5535 -13.5480 -13.5377  -3.5404  -3.4756  -3.4151  -3.3960
    -1.4579  -1.4252  -1.3568  -1.2594  -1.1488  -1.0835  -1.0228  -0.9929
    -0.9215  -0.8455  -0.7673  -0.6957   0.4575   0.5887   0.6806   0.7958
     0.9599   1.0069   1.0847   1.1189   1.2429   1.2943   1.4394   1.4771
     1.5857   1.6093   1.6845   1.7376   1.8678   1.9463   1.9985   2.0241
     2.4709   2.5356   2.5673   2.5837   2.9048   3.0167   3.0752   3.1390
     3.2774   3.3364   3.4169   3.4601   5.5149   5.5368   5.5738   5.5831
     5.6782   5.6842   5.7016   5.7237   6.8480   6.8751   6.9143   6.9487
     7.0622   7.0867   7.1381   7.1656   7.1957   7.2312   7.2721   7.3006
    10.4642  10.9353  11.3083  11.5496  12.4063  12.5087  12.6705  12.7854
    12.9692  13.0496  13.1277  13.2742  13.4504  13.5998

     occupation numbers 
     1.0000   1.0000   1.0000   1.0000   1.0000   1.0000   1.0000   1.0000
     1.0000   1.0000   1.0000   1.0000   1.0000   1.0000   1.0000   1.0000
     1.0000   1.0000   1.0000   1.0000   1.0000   1.0000   1.0000   1.0000
     1.0000   1.0000   1.0000   1.0000   1.0000   1.0000   1.0000   1.0000
     1.0000   1.0000   1.0000   1.0000   1.0000   1.0000   1.0000   1.0000
     1.0000   1.0000   1.0000   1.0000   1.0000   1.0000   1.0000   1.0000
     1.0000   1.0000   1.0000   1.0000   1.0000   1.0000   1.0000   1.0000
     1.0000   1.0000   1.0000   1.0000   1.0000   1.0000   1.0000   1.0000
     1.0000   1.0000   1.0000   1.0000   1.0000   1.0000   1.0000   1.0000
     1.0000   1.0000   1.0000   1.0000   1.0000   1.0000   1.0000   1.0000
     1.0000   1.0000   1.0000   1.0000   1.0000   1.0000   1.0000   1.0000
     1.0000   1.0000   1.0000   1.0000   0.0000   0.0000   0.0000   0.0000
     0.0000   0.0000   0.0000   0.0000   0.0000   0.0000   0.0000   0.0000
     0.0000   0.0000   0.0000   0.0000   0.0000   0.0000   0.0000   0.0000
     0.0000   0.0000   0.0000   0.0000   0.0000   0.0000

          k = 0.3333-0.1646-0.2475 ( 22980 PWs)   bands (ev):

   -88.3956 -88.3955 -88.3931 -88.3930 -51.3311 -51.3311 -51.3286 -51.3285
   -51.2808 -51.2808 -51.2782 -51.2781 -51.2450 -51.2449 -51.2424 -51.2423
   -38.5233 -38.5233 -38.5194 -38.5192 -16.0666 -16.0400 -16.0282 -16.0160
   -13.7336 -13.7184 -13.6983 -13.6840 -13.6319 -13.6133 -13.6062 -13.5935
   -13.5647 -13.5547 -13.5497 -13.5362  -3.5404  -3.4754  -3.4149  -3.3964
    -1.4566  -1.4269  -1.3564  -1.2602  -1.1493  -1.0828  -1.0227  -0.9926
    -0.9203  -0.8459  -0.7684  -0.6953   0.4580   0.5884   0.6802   0.7955
     0.9600   1.0063   1.0849   1.1193   1.2438   1.2952   1.4384   1.4765
     1.5849   1.6100   1.6836   1.7386   1.8674   1.9465   1.9988   2.0239
     2.4716   2.5349   2.5679   2.5831   2.9050   3.0167   3.0747   3.1390
     3.2774   3.3370   3.4176   3.4593   5.5151   5.5362   5.5744   5.5832
     5.6783   5.6846   5.7001   5.7245   6.8495   6.8742   6.9129   6.9497
     7.0630   7.0861   7.1371   7.1653   7.1968   7.2320   7.2708   7.3011
    10.4641  10.9353  11.3085  11.5496  12.4058  12.5081  12.6706  12.7858
    12.9688  13.0497  13.1282  13.2741  13.4509  13.6003

     occupation numbers 
     1.0000   1.0000   1.0000   1.0000   1.0000   1.0000   1.0000   1.0000
     1.0000   1.0000   1.0000   1.0000   1.0000   1.0000   1.0000   1.0000
     1.0000   1.0000   1.0000   1.0000   1.0000   1.0000   1.0000   1.0000
     1.0000   1.0000   1.0000   1.0000   1.0000   1.0000   1.0000   1.0000
     1.0000   1.0000   1.0000   1.0000   1.0000   1.0000   1.0000   1.0000
     1.0000   1.0000   1.0000   1.0000   1.0000   1.0000   1.0000   1.0000
     1.0000   1.0000   1.0000   1.0000   1.0000   1.0000   1.0000   1.0000
     1.0000   1.0000   1.0000   1.0000   1.0000   1.0000   1.0000   1.0000
     1.0000   1.0000   1.0000   1.0000   1.0000   1.0000   1.0000   1.0000
     1.0000   1.0000   1.0000   1.0000   1.0000   1.0000   1.0000   1.0000
     1.0000   1.0000   1.0000   1.0000   1.0000   1.0000   1.0000   1.0000
     1.0000   1.0000   1.0000   1.0000   0.0000   0.0000   0.0000   0.0000
     0.0000   0.0000   0.0000   0.0000   0.0000   0.0000   0.0000   0.0000
     0.0000   0.0000   0.0000   0.0000   0.0000   0.0000   0.0000   0.0000
     0.0000   0.0000   0.0000   0.0000   0.0000   0.0000

     the Fermi energy is     6.4014 ev

!    total energy              =   -1915.41470790 Ry
     estimated scf accuracy    <          5.0E-09 Ry
     smearing contrib. (-TS)   =       0.00000000 Ry
     internal energy E=F+TS    =   -1915.41470791 Ry

     The total energy is F=E-TS. E is the sum of the following terms:
     one-electron contribution =   -1160.49443927 Ry
     hartree contribution      =     657.55359903 Ry
     xc contribution           =    -338.50006822 Ry
     ewald contribution        =    -921.82372404 Ry
     one-center paw contrib.   =    -152.15007540 Ry
      -> PAW hartree energy AE =       0.00000000 Ry
      -> PAW hartree energy PS =       0.00000000 Ry
      -> PAW xc energy AE      =       0.00000000 Ry
      -> PAW xc energy PS      =       0.00000000 Ry
      -> total E_H with PAW    =     657.55359903 Ry
      -> total E_XC with PAW   =    -338.50006822 Ry

     total magnetization       =    12.00 Bohr mag/cell
     absolute magnetization    =    12.07 Bohr mag/cell

     convergence has been achieved in  17 iterations

     Writing all to output data dir ./tmp_final/LiCoPO4.save/ :
     XML data file, charge density, pseudopotentials, collected wavefunctions

     init_run     :      9.99s CPU      9.33s WALL (       1 calls)
     electrons    :    625.73s CPU    579.26s WALL (       1 calls)

     Called by init_run:
     wfcinit      :      9.15s CPU      8.48s WALL (       1 calls)
     wfcinit:atom :      0.05s CPU      0.05s WALL (      28 calls)
     wfcinit:wfcr :      8.54s CPU      7.87s WALL (      28 calls)
     potinit      :      0.34s CPU      0.35s WALL (       1 calls)
     hinit0       :      0.20s CPU      0.20s WALL (       1 calls)

     Called by electrons:
     c_bands      :    533.83s CPU    493.76s WALL (      17 calls)
     sum_band     :     78.88s CPU     72.68s WALL (      17 calls)
     v_of_rho     :      2.54s CPU      2.58s WALL (      18 calls)
     v_h          :      0.08s CPU      0.08s WALL (      18 calls)
     v_xc         :      2.45s CPU      2.50s WALL (      18 calls)
     newd         :      5.26s CPU      4.98s WALL (      18 calls)
     PAW_pot      :      5.11s CPU      5.11s WALL (      18 calls)
     mix_rho      :      0.40s CPU      0.43s WALL (      17 calls)

     Called by c_bands:
     init_us_2    :      4.04s CPU      4.06s WALL (     980 calls)
     cegterg      :    519.95s CPU    479.85s WALL (     476 calls)

     Called by sum_band:
     sum_band:wei :      0.08s CPU      0.08s WALL (      17 calls)
     sum_band:loo :     69.44s CPU     63.23s WALL (      17 calls)
     sum_band:buf :      0.43s CPU      0.43s WALL (     476 calls)
     sum_band:ini :      1.97s CPU      1.98s WALL (     476 calls)
     sum_band:cal :     20.69s CPU     14.22s WALL (     476 calls)
     sum_band:bec :      0.08s CPU      0.08s WALL (     476 calls)
     addusdens    :      8.93s CPU      8.95s WALL (      17 calls)
                                        0.00s GPU  (      17 calls)
     addusd:skk   :      0.07s CPU      0.07s WALL (      51 calls)
                                        0.00s GPU  (      51 calls)

     Called by *egterg:
     cdiaghg      :     30.72s CPU     30.81s WALL (    2319 calls)
     cegterg:over :     46.62s CPU     39.98s WALL (    1843 calls)
     cegterg:upda :     30.65s CPU     30.80s WALL (    1843 calls)
     cegterg:last :     42.45s CPU     35.18s WALL (     950 calls)
     h_psi        :    317.47s CPU    296.90s WALL (    2347 calls)
     s_psi        :     40.30s CPU     33.68s WALL (    2347 calls)
     g_psi        :      0.88s CPU      0.88s WALL (    1843 calls)

     Called by h_psi:
     h_psi:calbec :     57.93s CPU     44.52s WALL (    2347 calls)
     vloc_psi     :    213.38s CPU    214.27s WALL (    2347 calls)
                                        0.00s GPU  (    2347 calls)
     add_vuspsi   :     45.07s CPU     36.99s WALL (    2347 calls)

     General routines
     calbec       :     78.61s CPU     58.74s WALL (    2823 calls)
     fft          :      1.54s CPU      1.55s WALL (     444 calls)
     ffts         :      0.09s CPU      0.09s WALL (      70 calls)
     fftw         :    236.44s CPU    237.37s WALL (  344106 calls)
     interpolate  :      0.17s CPU      0.17s WALL (      36 calls)

     Parallel routines

     PAW routines
     PAW_pot      :      5.11s CPU      5.11s WALL (      18 calls)

     PWSCF        :  10m36.10s CPU   9m49.17s WALL


   This run was terminated on:  12:58:17  30Aug2026            

=------------------------------------------------------------------------------=
   JOB DONE.
=------------------------------------------------------------------------------=
