
     Program PWSCF v.7.5 starts on 30Aug2026 at  9:47:20 

     This program is part of the open-source Quantum ESPRESSO suite
     for quantum simulation of materials; please cite
         "P. Giannozzi et al., J. Phys.:Condens. Matter 21 395502 (2009);
         "P. Giannozzi et al., J. Phys.:Condens. Matter 29 465901 (2017);
         "P. Giannozzi et al., J. Chem. Phys. 152 154105 (2020);
          URL http://www.quantum-espresso.org", 
     in publications or presentations arising from this work. More details at
     http://www.quantum-espresso.org/quote

     Parallel version (MPI), running on     4 processors

     MPI processes distributed on     1 nodes
     0 MiB available memory on the printing compute node when the environment starts

     Reading input from CoPO4_final_scf.in
Warning: card NEW UNIT-CELL VOLUME =   2586.68846 A.U.^3 (   383.30768 ANG^3 ) ignored
Warning: card      DENSITY =      2.66691 G/CM^3 ignored

     Current dimensions of program PWSCF are:
     Max number of different atomic species (ntypx) = 10
     Max number of k-points (npk) =  40000
     Max angular momentum in pseudopotentials (lmaxx) =  4
     file O.paw.pbe.z_6.ld1.psl.v0.1.upf: wavefunction(s)  2P renormalized
     Message from routine setup:
     using ibrav=0 with symmetry is DISCOURAGED, use correct ibrav instead

     R & G space division:  proc/nbgrp/npool/nimage =       4
     Subspace diagonalization in iterative solution of the eigenvalue problem:
     a serial algorithm will be used


     Parallelization info
     --------------------
     sticks:   dense  smooth     PW     G-vecs:    dense   smooth      PW
     Min        1402     727    194               137074    51165    7082
     Max        1403     728    195               137079    51170    7087
     Sum        5611    2911    779               548309   204675   28337

     Using Slab Decomposition



     bravais-lattice index     =            0
     lattice parameter (alat)  =       9.8447  a.u.
     unit-cell volume          =    2586.6885 (a.u.)^3
     number of atoms/cell      =           24
     number of atomic types    =            3
     number of electrons       =       184.00
     number of Kohn-Sham states=          110
     kinetic-energy cutoff     =      70.0000  Ry
     charge density cutoff     =     540.0000  Ry
     scf convergence threshold =      1.0E-08
     mixing beta               =       0.3000
     number of iterations used =            8  plain     mixing
     Exchange-correlation= PBE
                           (   1   4   3   4   0   0   0)

     celldm(1)=   9.844665  celldm(2)=   0.000000  celldm(3)=   0.000000
     celldm(4)=   0.000000  celldm(5)=   0.000000  celldm(6)=   0.000000

     crystal axes: (cart. coord. in units of alat)
               a(1) = (   1.000000   0.000000   0.000000 )  
               a(2) = (  -0.000000   1.347214   0.000000 )  
               a(3) = (   0.000000   0.000000   2.012356 )  

     reciprocal axes: (cart. coord. in units 2 pi/alat)
               b(1) = (  1.000000  0.000000 -0.000000 )  
               b(2) = (  0.000000  0.742273  0.000000 )  
               b(3) = (  0.000000 -0.000000  0.496930 )  


     PseudoPot. # 1 for Co read from file:
     /Users/qiqi/battery/dft/pseudo/Co.nc.pbe.z_17.oncvpsp4.spms.v1.upf
     MD5 check sum: 3ac903b308c672f8bf9f4cd16543a038
     Pseudo is Norm-conserving + core correction, Zval = 17.0
     Generated using ONCVPSP code by D. R. Hamann
     Using radial grid of 1394 points,  6 beta functions with: 
                l(1) =   0
                l(2) =   0
                l(3) =   1
                l(4) =   1
                l(5) =   2
                l(6) =   2

     PseudoPot. # 2 for O  read from file:
     /Users/qiqi/battery/dft/pseudo/O.paw.pbe.z_6.ld1.psl.v0.1.upf
     MD5 check sum: a60b4d0ae3a5477449b52f76b61da220
     Pseudo is Projector augmented-wave + core cor, Zval =  6.0
     Generated using &quot;atomic&quot; code by A. Dal Corso  v.6.3MaX
     Shape of augmentation charge: BESSEL
     Using radial grid of 1095 points,  4 beta functions with: 
                l(1) =   0
                l(2) =   0
                l(3) =   1
                l(4) =   1
     Q(r) pseudized with 0 coefficients 


     PseudoPot. # 3 for P  read from file:
     /Users/qiqi/battery/dft/pseudo/P.us.pbe.z_5.ld1.psl.v1.0.0-high.upf
     MD5 check sum: 6c1fe66e5fe6a552967721b615186bc2
     Pseudo is Ultrasoft + core correction, Zval =  5.0
     Generated using &quot;atomic&quot; code by A. Dal Corso  v.6.3MaX
     Using radial grid of 1147 points,  6 beta functions with: 
                l(1) =   0
                l(2) =   0
                l(3) =   1
                l(4) =   1
                l(5) =   2
                l(6) =   2
     Q(r) pseudized with 0 coefficients 


     atomic species   valence    mass     pseudopotential
     Co               17.00    58.93319     Co( 1.00)
     O                 6.00    15.99900     O ( 1.00)
     P                 5.00    30.97376     P ( 1.00)

     Starting magnetic structure 
     atomic species   magnetization
     Co              0.500
     O               0.000
     P               0.000

      4 Sym. Ops. (no inversion) found ( 3 have fractional translation)


                                    s                        frac. trans.

      isym =  1     identity                                     

 cryst.   s( 1) = (     1          0          0      )
                  (     0          1          0      )
                  (     0          0          1      )

 cart.    s( 1) = (  1.0000000  0.0000000  0.0000000 )
                  (  0.0000000  1.0000000  0.0000000 )
                  (  0.0000000  0.0000000  1.0000000 )


      isym =  2     180 deg rotation - cart. axis [0,1,0]        

 cryst.   s( 2) = (    -1          0          0      )    f =(  0.0000000 )
                  (     0          1          0      )       ( -0.5000000 )
                  (     0          0         -1      )       (  0.0000000 )

 cart.    s( 2) = ( -1.0000000  0.0000000  0.0000000 )    f =(  0.0000000 )
                  (  0.0000000  1.0000000  0.0000000 )       ( -0.6736068 )
                  (  0.0000000  0.0000000 -1.0000000 )       (  0.0000000 )


      isym =  3     inv. 180 deg rotation - cart. axis [0,0,1]   

 cryst.   s( 3) = (     1          0          0      )    f =( -0.5000000 )
                  (     0          1          0      )       ( -0.5000000 )
                  (     0          0         -1      )       (  0.5000000 )

 cart.    s( 3) = (  1.0000000  0.0000000  0.0000000 )    f =( -0.5000000 )
                  (  0.0000000  1.0000000  0.0000000 )       ( -0.6736068 )
                  (  0.0000000  0.0000000 -1.0000000 )       (  1.0061781 )


      isym =  4     inv. 180 deg rotation - cart. axis [1,0,0]   

 cryst.   s( 4) = (    -1          0          0      )    f =(  0.5000000 )
                  (     0          1          0      )       (  0.0000000 )
                  (     0          0          1      )       ( -0.5000000 )

 cart.    s( 4) = ( -1.0000000  0.0000000  0.0000000 )    f =(  0.5000000 )
                  (  0.0000000  1.0000000  0.0000000 )       (  0.0000000 )
                  (  0.0000000  0.0000000  1.0000000 )       ( -1.0061781 )


   Cartesian axes

     site n.     atom                  positions (alat units)
         1        Co     tau(   1) = (   0.1838418   1.0611231   0.7010971  )
         2        Co     tau(   2) = (   0.3161582   1.0611231   1.7072752  )
         3        Co     tau(   3) = (   0.8161582   0.3875162   1.3112591  )
         4        Co     tau(   4) = (   0.6838418   0.3875162   0.3050810  )
         5        P      tau(   5) = (   0.6856070   0.0500338   0.8110561  )
         6        P      tau(   6) = (   0.8143930   0.0500338   1.8172342  )
         7        P      tau(   7) = (   0.1856070   0.7236407   0.1951220  )
         8        P      tau(   8) = (   0.3143930   0.7236407   1.2013002  )
         9        O      tau(   9) = (   0.2488273   0.7852576   1.9233747  )
        10        O      tau(  10) = (   0.6056335   0.6612291   1.2245917  )
        11        O      tau(  11) = (   0.2479619   0.9621175   0.3633695  )
        12        O      tau(  12) = (   0.8412526   1.1570494   0.7261990  )
        13        O      tau(  13) = (   0.8943665   0.6612291   0.2184136  )
        14        O      tau(  14) = (   0.7520381   0.2885107   1.6489868  )
        15        O      tau(  15) = (   0.2511727   0.7852576   0.9171966  )
        16        O      tau(  16) = (   0.1587474   0.4834425   1.2861572  )
        17        O      tau(  17) = (   0.1056335   1.3348360   1.7939426  )
        18        O      tau(  18) = (   0.3412526   0.4834425   0.2799791  )
        19        O      tau(  19) = (   0.2520381   0.9621175   1.3695476  )
        20        O      tau(  20) = (   0.7511727   0.1116508   0.0889815  )
        21        O      tau(  21) = (   0.7479619   0.2885107   0.6428087  )
        22        O      tau(  22) = (   0.3943665   1.3348360   0.7877645  )
        23        O      tau(  23) = (   0.6587474   1.1570494   1.7323772  )
        24        O      tau(  24) = (   0.7488273   0.1116508   1.0951596  )

   Crystallographic axes

     site n.     atom                  positions (cryst. coord.)
         1        Co     tau(   1) = (  0.1838418  0.7876427  0.3483961  )
         2        Co     tau(   2) = (  0.3161582  0.7876427  0.8483961  )
         3        Co     tau(   3) = (  0.8161582  0.2876427  0.6516039  )
         4        Co     tau(   4) = (  0.6838418  0.2876427  0.1516039  )
         5        P      tau(   5) = (  0.6856070  0.0371388  0.4030380  )
         6        P      tau(   6) = (  0.8143930  0.0371388  0.9030380  )
         7        P      tau(   7) = (  0.1856070  0.5371388  0.0969620  )
         8        P      tau(   8) = (  0.3143930  0.5371388  0.5969620  )
         9        O      tau(   9) = (  0.2488273  0.5828753  0.9557824  )
        10        O      tau(  10) = (  0.6056335  0.4908124  0.6085362  )
        11        O      tau(  11) = (  0.2479619  0.7141536  0.1805692  )
        12        O      tau(  12) = (  0.8412526  0.8588462  0.3608700  )
        13        O      tau(  13) = (  0.8943665  0.4908124  0.1085362  )
        14        O      tau(  14) = (  0.7520381  0.2141536  0.8194308  )
        15        O      tau(  15) = (  0.2511727  0.5828753  0.4557824  )
        16        O      tau(  16) = (  0.1587474  0.3588462  0.6391300  )
        17        O      tau(  17) = (  0.1056335  0.9908124  0.8914638  )
        18        O      tau(  18) = (  0.3412526  0.3588462  0.1391300  )
        19        O      tau(  19) = (  0.2520381  0.7141536  0.6805692  )
        20        O      tau(  20) = (  0.7511727  0.0828753  0.0442176  )
        21        O      tau(  21) = (  0.7479619  0.2141536  0.3194308  )
        22        O      tau(  22) = (  0.3943665  0.9908124  0.3914638  )
        23        O      tau(  23) = (  0.6587474  0.8588462  0.8608700  )
        24        O      tau(  24) = (  0.7488273  0.0828753  0.5442176  )

     number of k points=     8  Marzari-Vanderbilt smearing, width (Ry)=  0.0100
                       cart. coord. in units 2pi/alat
        k(    1) = (   0.0000000   0.0000000   0.0000000), wk =   0.0370370
        k(    2) = (   0.0000000   0.0000000   0.1656433), wk =   0.0740741
        k(    3) = (   0.0000000   0.2474243   0.0000000), wk =   0.0740741
        k(    4) = (   0.0000000   0.2474243   0.1656433), wk =   0.1481481
        k(    5) = (   0.3333333   0.0000000   0.0000000), wk =   0.0740741
        k(    6) = (   0.3333333   0.0000000   0.1656433), wk =   0.1481481
        k(    7) = (   0.3333333   0.2474243   0.0000000), wk =   0.1481481
        k(    8) = (   0.3333333   0.2474243   0.1656433), wk =   0.2962963

                       cryst. coord.
        k(    1) = (   0.0000000   0.0000000   0.0000000), wk =   0.0370370
        k(    2) = (   0.0000000   0.0000000   0.3333333), wk =   0.0740741
        k(    3) = (   0.0000000   0.3333333   0.0000000), wk =   0.0740741
        k(    4) = (   0.0000000   0.3333333   0.3333333), wk =   0.1481481
        k(    5) = (   0.3333333   0.0000000   0.0000000), wk =   0.0740741
        k(    6) = (   0.3333333   0.0000000   0.3333333), wk =   0.1481481
        k(    7) = (   0.3333333   0.3333333   0.0000000), wk =   0.1481481
        k(    8) = (   0.3333333   0.3333333   0.3333333), wk =   0.2962963

     Dense  grid:   548309 G-vectors     FFT dimensions: (  80, 100, 150)

     Smooth grid:   204675 G-vectors     FFT dimensions: (  54,  72, 108)

     Dynamical RAM for                 wfc:      10.73 MB

     Dynamical RAM for     wfc (w. buffer):     182.47 MB

     Dynamical RAM for           str. fact:       6.27 MB

     Dynamical RAM for           local pot:       0.00 MB

     Dynamical RAM for          nlocal pot:      26.54 MB

     Dynamical RAM for                qrad:       5.59 MB

     Dynamical RAM for          rho,v,vnew:      26.47 MB

     Dynamical RAM for               rhoin:       8.82 MB

     Dynamical RAM for            rho*nmix:      66.93 MB

     Dynamical RAM for           G-vectors:       8.23 MB

     Dynamical RAM for          h,s,v(r/c):       2.22 MB

     Dynamical RAM for          <psi|beta>:       0.46 MB

     Dynamical RAM for                 psi:      21.47 MB

     Dynamical RAM for                hpsi:      21.47 MB

     Dynamical RAM for                spsi:      21.47 MB

     Dynamical RAM for      wfcinit/wfcrot:      21.75 MB

     Dynamical RAM for           addusdens:     424.61 MB

     Estimated static dynamical RAM per process >     286.69 MB

     Estimated max dynamical RAM per process >     778.23 MB

     Estimated total dynamical RAM >       3.04 GB

     Check: negative core charge=   -0.000001
     Generating pointlists ...
     new r_m :   0.1469 (alat units)  1.4458 (a.u.) for type    1
     new r_m :   0.1227 (alat units)  1.2081 (a.u.) for type    2
     new r_m :   0.1227 (alat units)  1.2081 (a.u.) for type    3

     Initial potential from superposition of free atoms

     starting charge     183.9982, renormalised to     184.0000
     Starting wfcs are  120 randomized atomic wfcs
     Checking if some PAW data can be deallocated... 
       PAW data deallocated on    1 nodes for type:  2

     total cpu time spent up to now is        5.1 secs

     Self-consistent Calculation

     iteration #  1     ecut=    70.00 Ry     beta= 0.30
     Davidson diagonalization with overlap

---- Real-time Memory Report at c_bands before calling an iterative solver
             0 MiB given to the printing process from OS
             0 MiB allocation reported by mallinfo(arena+hblkhd)
             0 MiB available memory on the node where the printing process lives
------------------
     ethr =  1.00E-02,  avg # of iterations =  4.8

     total cpu time spent up to now is       22.8 secs

     total energy              =   -1854.16242069 Ry
     estimated scf accuracy    <      10.00958004 Ry

     total magnetization       =    16.00 Bohr mag/cell
     absolute magnetization    =    16.01 Bohr mag/cell

     iteration #  2     ecut=    70.00 Ry     beta= 0.30
     Davidson diagonalization with overlap

---- Real-time Memory Report at c_bands before calling an iterative solver
             0 MiB given to the printing process from OS
             0 MiB allocation reported by mallinfo(arena+hblkhd)
             0 MiB available memory on the node where the printing process lives
------------------
     ethr =  5.44E-03,  avg # of iterations =  2.0

     total cpu time spent up to now is       36.2 secs

     total energy              =   -1855.92070351 Ry
     estimated scf accuracy    <       2.03313744 Ry

     total magnetization       =    16.00 Bohr mag/cell
     absolute magnetization    =    16.01 Bohr mag/cell

     iteration #  3     ecut=    70.00 Ry     beta= 0.30
     Davidson diagonalization with overlap

---- Real-time Memory Report at c_bands before calling an iterative solver
             0 MiB given to the printing process from OS
             0 MiB allocation reported by mallinfo(arena+hblkhd)
             0 MiB available memory on the node where the printing process lives
------------------
     ethr =  1.10E-03,  avg # of iterations =  1.9

     total cpu time spent up to now is       48.5 secs

     total energy              =   -1856.30682124 Ry
     estimated scf accuracy    <       0.82530754 Ry

     total magnetization       =    16.00 Bohr mag/cell
     absolute magnetization    =    16.01 Bohr mag/cell

     iteration #  4     ecut=    70.00 Ry     beta= 0.30
     Davidson diagonalization with overlap

---- Real-time Memory Report at c_bands before calling an iterative solver
             0 MiB given to the printing process from OS
             0 MiB allocation reported by mallinfo(arena+hblkhd)
             0 MiB available memory on the node where the printing process lives
------------------
     ethr =  4.49E-04,  avg # of iterations =  2.7

     total cpu time spent up to now is       61.3 secs

     total energy              =   -1856.40976336 Ry
     estimated scf accuracy    <       0.34727349 Ry

     total magnetization       =    16.00 Bohr mag/cell
     absolute magnetization    =    16.02 Bohr mag/cell

     iteration #  5     ecut=    70.00 Ry     beta= 0.30
     Davidson diagonalization with overlap

---- Real-time Memory Report at c_bands before calling an iterative solver
             0 MiB given to the printing process from OS
             0 MiB allocation reported by mallinfo(arena+hblkhd)
             0 MiB available memory on the node where the printing process lives
------------------
     ethr =  1.89E-04,  avg # of iterations =  7.5

     total cpu time spent up to now is       79.6 secs

     total energy              =   -1856.43328143 Ry
     estimated scf accuracy    <       0.07271684 Ry

     total magnetization       =    16.00 Bohr mag/cell
     absolute magnetization    =    16.05 Bohr mag/cell

     iteration #  6     ecut=    70.00 Ry     beta= 0.30
     Davidson diagonalization with overlap

---- Real-time Memory Report at c_bands before calling an iterative solver
             0 MiB given to the printing process from OS
             0 MiB allocation reported by mallinfo(arena+hblkhd)
             0 MiB available memory on the node where the printing process lives
------------------
     c_bands:  1 eigenvalues not converged
     ethr =  3.95E-05,  avg # of iterations = 13.3

     total cpu time spent up to now is      101.4 secs

     total energy              =   -1856.44936310 Ry
     estimated scf accuracy    <       0.04740691 Ry

     total magnetization       =    16.00 Bohr mag/cell
     absolute magnetization    =    16.05 Bohr mag/cell

     iteration #  7     ecut=    70.00 Ry     beta= 0.30
     Davidson diagonalization with overlap

---- Real-time Memory Report at c_bands before calling an iterative solver
             0 MiB given to the printing process from OS
             0 MiB allocation reported by mallinfo(arena+hblkhd)
             0 MiB available memory on the node where the printing process lives
------------------
     ethr =  2.58E-05,  avg # of iterations =  1.4

     total cpu time spent up to now is      113.9 secs

     total energy              =   -1856.45401322 Ry
     estimated scf accuracy    <       0.00075186 Ry

     total magnetization       =    16.00 Bohr mag/cell
     absolute magnetization    =    16.06 Bohr mag/cell

     iteration #  8     ecut=    70.00 Ry     beta= 0.30
     Davidson diagonalization with overlap

---- Real-time Memory Report at c_bands before calling an iterative solver
             0 MiB given to the printing process from OS
             0 MiB allocation reported by mallinfo(arena+hblkhd)
             0 MiB available memory on the node where the printing process lives
------------------
     c_bands:  3 eigenvalues not converged
     c_bands:  1 eigenvalues not converged
     c_bands:  1 eigenvalues not converged
     c_bands:  1 eigenvalues not converged
     ethr =  4.09E-07,  avg # of iterations = 13.9

     total cpu time spent up to now is      140.6 secs

     total energy              =   -1856.45430026 Ry
     estimated scf accuracy    <       0.00024337 Ry

     total magnetization       =    16.00 Bohr mag/cell
     absolute magnetization    =    16.06 Bohr mag/cell

     iteration #  9     ecut=    70.00 Ry     beta= 0.30
     Davidson diagonalization with overlap

---- Real-time Memory Report at c_bands before calling an iterative solver
             0 MiB given to the printing process from OS
             0 MiB allocation reported by mallinfo(arena+hblkhd)
             0 MiB available memory on the node where the printing process lives
------------------
     ethr =  1.32E-07,  avg # of iterations =  2.8

     total cpu time spent up to now is      156.1 secs

     total energy              =   -1856.45424291 Ry
     estimated scf accuracy    <       0.00032089 Ry

     total magnetization       =    16.00 Bohr mag/cell
     absolute magnetization    =    16.07 Bohr mag/cell

     iteration # 10     ecut=    70.00 Ry     beta= 0.30
     Davidson diagonalization with overlap

---- Real-time Memory Report at c_bands before calling an iterative solver
             0 MiB given to the printing process from OS
             0 MiB allocation reported by mallinfo(arena+hblkhd)
             0 MiB available memory on the node where the printing process lives
------------------
     ethr =  1.32E-07,  avg # of iterations =  2.0

     total cpu time spent up to now is      171.5 secs

     total energy              =   -1856.45430995 Ry
     estimated scf accuracy    <       0.00029116 Ry

     total magnetization       =    16.00 Bohr mag/cell
     absolute magnetization    =    16.07 Bohr mag/cell

     iteration # 11     ecut=    70.00 Ry     beta= 0.30
     Davidson diagonalization with overlap

---- Real-time Memory Report at c_bands before calling an iterative solver
             0 MiB given to the printing process from OS
             0 MiB allocation reported by mallinfo(arena+hblkhd)
             0 MiB available memory on the node where the printing process lives
------------------
     ethr =  1.32E-07,  avg # of iterations =  1.0

     total cpu time spent up to now is      184.0 secs

     total energy              =   -1856.45434941 Ry
     estimated scf accuracy    <       0.00000534 Ry

     total magnetization       =    16.00 Bohr mag/cell
     absolute magnetization    =    16.07 Bohr mag/cell

     iteration # 12     ecut=    70.00 Ry     beta= 0.30
     Davidson diagonalization with overlap

---- Real-time Memory Report at c_bands before calling an iterative solver
             0 MiB given to the printing process from OS
             0 MiB allocation reported by mallinfo(arena+hblkhd)
             0 MiB available memory on the node where the printing process lives
------------------
     ethr =  2.90E-09,  avg # of iterations =  3.1

     total cpu time spent up to now is      202.9 secs

     total energy              =   -1856.45435199 Ry
     estimated scf accuracy    <       0.00000318 Ry

     total magnetization       =    16.00 Bohr mag/cell
     absolute magnetization    =    16.07 Bohr mag/cell

     iteration # 13     ecut=    70.00 Ry     beta= 0.30
     Davidson diagonalization with overlap

---- Real-time Memory Report at c_bands before calling an iterative solver
             0 MiB given to the printing process from OS
             0 MiB allocation reported by mallinfo(arena+hblkhd)
             0 MiB available memory on the node where the printing process lives
------------------
     ethr =  1.73E-09,  avg # of iterations =  2.0

     total cpu time spent up to now is      220.2 secs

     total energy              =   -1856.45435260 Ry
     estimated scf accuracy    <       0.00000192 Ry

     total magnetization       =    16.00 Bohr mag/cell
     absolute magnetization    =    16.07 Bohr mag/cell

     iteration # 14     ecut=    70.00 Ry     beta= 0.30
     Davidson diagonalization with overlap

---- Real-time Memory Report at c_bands before calling an iterative solver
             0 MiB given to the printing process from OS
             0 MiB allocation reported by mallinfo(arena+hblkhd)
             0 MiB available memory on the node where the printing process lives
------------------
     ethr =  1.04E-09,  avg # of iterations =  1.5

     total cpu time spent up to now is      235.1 secs

     total energy              =   -1856.45435267 Ry
     estimated scf accuracy    <       0.00000050 Ry

     total magnetization       =    16.00 Bohr mag/cell
     absolute magnetization    =    16.07 Bohr mag/cell

     iteration # 15     ecut=    70.00 Ry     beta= 0.30
     Davidson diagonalization with overlap

---- Real-time Memory Report at c_bands before calling an iterative solver
             0 MiB given to the printing process from OS
             0 MiB allocation reported by mallinfo(arena+hblkhd)
             0 MiB available memory on the node where the printing process lives
------------------
     ethr =  2.70E-10,  avg # of iterations =  2.0

     total cpu time spent up to now is      252.6 secs

     total energy              =   -1856.45435284 Ry
     estimated scf accuracy    <       0.00000005 Ry

     total magnetization       =    16.00 Bohr mag/cell
     absolute magnetization    =    16.07 Bohr mag/cell

     iteration # 16     ecut=    70.00 Ry     beta= 0.30
     Davidson diagonalization with overlap

---- Real-time Memory Report at c_bands before calling an iterative solver
             0 MiB given to the printing process from OS
             0 MiB allocation reported by mallinfo(arena+hblkhd)
             0 MiB available memory on the node where the printing process lives
------------------
     ethr =  2.50E-11,  avg # of iterations =  2.1

     total cpu time spent up to now is      271.5 secs

     total energy              =   -1856.45435285 Ry
     estimated scf accuracy    <       0.00000001 Ry

     total magnetization       =    16.00 Bohr mag/cell
     absolute magnetization    =    16.07 Bohr mag/cell

     iteration # 17     ecut=    70.00 Ry     beta= 0.30
     Davidson diagonalization with overlap

---- Real-time Memory Report at c_bands before calling an iterative solver
             0 MiB given to the printing process from OS
             0 MiB allocation reported by mallinfo(arena+hblkhd)
             0 MiB available memory on the node where the printing process lives
------------------
     ethr =  6.88E-12,  avg # of iterations =  2.4

     Magnetic moment per site  (integrated on atomic sphere of radius R)
     atom   1 (R=0.147)  charge= 13.7806  magn=  2.7008
     atom   2 (R=0.147)  charge= 13.7806  magn=  2.7008
     atom   3 (R=0.147)  charge= 13.7806  magn=  2.7008
     atom   4 (R=0.147)  charge= 13.7806  magn=  2.7008
     atom   5 (R=0.123)  charge=  0.8749  magn=  0.0125
     atom   6 (R=0.123)  charge=  0.8749  magn=  0.0125
     atom   7 (R=0.123)  charge=  0.8749  magn=  0.0125
     atom   8 (R=0.123)  charge=  0.8749  magn=  0.0125
     atom   9 (R=0.123)  charge=  4.2992  magn=  0.1846
     atom  10 (R=0.123)  charge=  4.2954  magn=  0.1930
     atom  11 (R=0.123)  charge=  4.2953  magn=  0.1759
     atom  12 (R=0.123)  charge=  4.2968  magn=  0.1784
     atom  13 (R=0.123)  charge=  4.2954  magn=  0.1930
     atom  14 (R=0.123)  charge=  4.2953  magn=  0.1759
     atom  15 (R=0.123)  charge=  4.2992  magn=  0.1846
     atom  16 (R=0.123)  charge=  4.2968  magn=  0.1784
     atom  17 (R=0.123)  charge=  4.2954  magn=  0.1930
     atom  18 (R=0.123)  charge=  4.2968  magn=  0.1784
     atom  19 (R=0.123)  charge=  4.2953  magn=  0.1759
     atom  20 (R=0.123)  charge=  4.2992  magn=  0.1846
     atom  21 (R=0.123)  charge=  4.2953  magn=  0.1759
     atom  22 (R=0.123)  charge=  4.2954  magn=  0.1930
     atom  23 (R=0.123)  charge=  4.2968  magn=  0.1784
     atom  24 (R=0.123)  charge=  4.2992  magn=  0.1846

     total cpu time spent up to now is      291.0 secs

     End of self-consistent calculation

 ------ SPIN UP ------------


          k = 0.0000 0.0000 0.0000 ( 25545 PWs)   bands (ev):

   -94.6556 -94.6556 -94.6556 -94.6556 -58.5696 -58.5696 -58.5696 -58.5696
   -58.4300 -58.4300 -58.4300 -58.4300 -57.8805 -57.8805 -57.8805 -57.8805
   -18.6125 -18.5232 -18.5017 -18.4730 -16.3185 -16.2638 -16.2459 -16.1331
   -16.1321 -16.1254 -16.1218 -16.1154 -16.1054 -16.0978 -16.0797 -16.0782
    -6.7363  -6.4816  -6.4237  -6.3295  -4.3569  -4.3534  -4.3306  -4.2089
    -4.1903  -4.1880  -4.1820  -4.1497  -4.1353  -4.1353  -4.0870  -4.0859
    -2.1836  -2.1731  -2.1292  -2.1180  -2.0149  -1.9708  -1.9530  -1.9395
    -1.8744  -1.8123  -1.7425  -1.7182  -1.5500  -1.3827  -1.3579  -1.2792
    -1.1347  -1.0920  -0.8158  -0.7540  -0.7050  -0.3948  -0.3907  -0.3581
    -0.2625  -0.0642   0.0100   0.0906   0.3774   0.4224   0.5004   0.5389
     0.5763   0.6060   0.9452   0.9948   1.0116   1.0638   1.0944   1.2996
     1.3214   1.3726   1.5278   1.5462   1.5698   1.6320   1.7008   1.7088
     1.7485   1.8893   1.9823   2.1709   6.9367   8.7774   8.8029  10.2307
    10.5893  10.7464  10.9490  10.9943  11.0788  11.2093

     occupation numbers 
     1.0000   1.0000   1.0000   1.0000   1.0000   1.0000   1.0000   1.0000
     1.0000   1.0000   1.0000   1.0000   1.0000   1.0000   1.0000   1.0000
     1.0000   1.0000   1.0000   1.0000   1.0000   1.0000   1.0000   1.0000
     1.0000   1.0000   1.0000   1.0000   1.0000   1.0000   1.0000   1.0000
     1.0000   1.0000   1.0000   1.0000   1.0000   1.0000   1.0000   1.0000
     1.0000   1.0000   1.0000   1.0000   1.0000   1.0000   1.0000   1.0000
     1.0000   1.0000   1.0000   1.0000   1.0000   1.0000   1.0000   1.0000
     1.0000   1.0000   1.0000   1.0000   1.0000   1.0000   1.0000   1.0000
     1.0000   1.0000   1.0000   1.0000   1.0000   1.0000   1.0000   1.0000
     1.0000   1.0000   1.0000   1.0000   1.0000   1.0000   1.0000   1.0000
     1.0000   1.0000   1.0000   1.0000   1.0000   1.0000   1.0000   1.0000
     1.0000   1.0000   1.0000   1.0000   1.0000   1.0000   1.0000   1.0000
     1.0000   1.0000   1.0000   1.0000   0.0000   0.0000   0.0000   0.0000
     0.0000   0.0000   0.0000   0.0000   0.0000   0.0000

          k = 0.0000 0.0000 0.1656 ( 25571 PWs)   bands (ev):

   -94.6556 -94.6556 -94.6556 -94.6556 -58.5696 -58.5696 -58.5696 -58.5696
   -58.4300 -58.4300 -58.4300 -58.4300 -57.8805 -57.8805 -57.8805 -57.8805
   -18.5964 -18.5570 -18.4831 -18.4741 -16.3138 -16.2958 -16.1946 -16.1460
   -16.1300 -16.1264 -16.1201 -16.1169 -16.1041 -16.0939 -16.0930 -16.0824
    -6.6909  -6.5796  -6.3661  -6.3351  -4.3398  -4.3368  -4.3038  -4.2437
    -4.2088  -4.1917  -4.1747  -4.1675  -4.1311  -4.1293  -4.0923  -4.0895
    -2.1904  -2.1581  -2.1290  -2.0923  -2.0253  -1.9717  -1.9646  -1.9122
    -1.8375  -1.7730  -1.7624  -1.6746  -1.5554  -1.4476  -1.4475  -1.1701
    -1.1495  -1.1338  -0.9405  -0.8459  -0.6231  -0.5465  -0.4557  -0.4035
    -0.0713   0.0785   0.1352   0.1888   0.3442   0.4304   0.4721   0.5111
     0.5817   0.7112   0.7381   0.9679   1.0641   1.0804   1.2021   1.2291
     1.2812   1.3322   1.4939   1.5416   1.5786   1.6311   1.6759   1.7696
     1.8291   1.8331   2.0024   2.1013   7.2021   7.8853   9.7436  10.2743
    10.5119  10.5849  10.7737  10.8091  11.1243  11.2674

     occupation numbers 
     1.0000   1.0000   1.0000   1.0000   1.0000   1.0000   1.0000   1.0000
     1.0000   1.0000   1.0000   1.0000   1.0000   1.0000   1.0000   1.0000
     1.0000   1.0000   1.0000   1.0000   1.0000   1.0000   1.0000   1.0000
     1.0000   1.0000   1.0000   1.0000   1.0000   1.0000   1.0000   1.0000
     1.0000   1.0000   1.0000   1.0000   1.0000   1.0000   1.0000   1.0000
     1.0000   1.0000   1.0000   1.0000   1.0000   1.0000   1.0000   1.0000
     1.0000   1.0000   1.0000   1.0000   1.0000   1.0000   1.0000   1.0000
     1.0000   1.0000   1.0000   1.0000   1.0000   1.0000   1.0000   1.0000
     1.0000   1.0000   1.0000   1.0000   1.0000   1.0000   1.0000   1.0000
     1.0000   1.0000   1.0000   1.0000   1.0000   1.0000   1.0000   1.0000
     1.0000   1.0000   1.0000   1.0000   1.0000   1.0000   1.0000   1.0000
     1.0000   1.0000   1.0000   1.0000   1.0000   1.0000   1.0000   1.0000
     1.0000   1.0000   1.0000   1.0000   0.0000   0.0000   0.0000   0.0000
     0.0000   0.0000   0.0000   0.0000   0.0000   0.0000

          k = 0.0000 0.2474 0.0000 ( 25605 PWs)   bands (ev):

   -94.6556 -94.6556 -94.6556 -94.6556 -58.5696 -58.5696 -58.5696 -58.5696
   -58.4300 -58.4300 -58.4300 -58.4300 -57.8805 -57.8805 -57.8805 -57.8805
   -18.5794 -18.5174 -18.5097 -18.5067 -16.2684 -16.2652 -16.2564 -16.1710
   -16.1295 -16.1287 -16.1248 -16.1217 -16.0975 -16.0952 -16.0790 -16.0782
    -6.6364  -6.4640  -6.4350  -6.4330  -4.3630  -4.3517  -4.3168  -4.2413
    -4.1928  -4.1847  -4.1828  -4.1817  -4.1113  -4.1016  -4.0845  -4.0842
    -2.1790  -2.1728  -2.1340  -2.1160  -2.0356  -2.0171  -2.0129  -1.9133
    -1.8837  -1.8475  -1.7247  -1.6046  -1.4767  -1.4748  -1.3083  -1.2210
    -1.1417  -0.9378  -0.9210  -0.8697  -0.6754  -0.4562  -0.4489  -0.2531
    -0.1815  -0.0910   0.0704   0.0963   0.1066   0.2751   0.5421   0.5866
     0.6194   0.8054   0.8120   0.8477   1.1153   1.1369   1.2282   1.2297
     1.3535   1.4041   1.4671   1.5576   1.5734   1.6288   1.6490   1.6802
     1.7978   1.9175   1.9612   2.0684   7.4994   8.8402   8.9919   9.0346
    10.3082  10.4537  11.1113  11.2100  11.3389  11.3774

     occupation numbers 
     1.0000   1.0000   1.0000   1.0000   1.0000   1.0000   1.0000   1.0000
     1.0000   1.0000   1.0000   1.0000   1.0000   1.0000   1.0000   1.0000
     1.0000   1.0000   1.0000   1.0000   1.0000   1.0000   1.0000   1.0000
     1.0000   1.0000   1.0000   1.0000   1.0000   1.0000   1.0000   1.0000
     1.0000   1.0000   1.0000   1.0000   1.0000   1.0000   1.0000   1.0000
     1.0000   1.0000   1.0000   1.0000   1.0000   1.0000   1.0000   1.0000
     1.0000   1.0000   1.0000   1.0000   1.0000   1.0000   1.0000   1.0000
     1.0000   1.0000   1.0000   1.0000   1.0000   1.0000   1.0000   1.0000
     1.0000   1.0000   1.0000   1.0000   1.0000   1.0000   1.0000   1.0000
     1.0000   1.0000   1.0000   1.0000   1.0000   1.0000   1.0000   1.0000
     1.0000   1.0000   1.0000   1.0000   1.0000   1.0000   1.0000   1.0000
     1.0000   1.0000   1.0000   1.0000   1.0000   1.0000   1.0000   1.0000
     1.0000   1.0000   1.0000   1.0000   0.0000   0.0000   0.0000   0.0000
     0.0000   0.0000   0.0000   0.0000   0.0000   0.0000

          k = 0.0000 0.2474 0.1656 ( 25544 PWs)   bands (ev):

   -94.6556 -94.6556 -94.6556 -94.6556 -58.5696 -58.5696 -58.5696 -58.5696
   -58.4300 -58.4300 -58.4300 -58.4300 -57.8805 -57.8805 -57.8805 -57.8805
   -18.5671 -18.5388 -18.5060 -18.5018 -16.2741 -16.2711 -16.2245 -16.1859
   -16.1300 -16.1295 -16.1246 -16.1230 -16.0945 -16.0905 -16.0864 -16.0813
    -6.6026  -6.5245  -6.4247  -6.4176  -4.3396  -4.3204  -4.3150  -4.2636
    -4.1971  -4.1955  -4.1809  -4.1786  -4.1158  -4.1125  -4.0929  -4.0907
    -2.1958  -2.1781  -2.1321  -2.0814  -2.0220  -2.0113  -1.9875  -1.9424
    -1.8492  -1.7788  -1.7470  -1.5936  -1.5080  -1.4157  -1.3835  -1.2676
    -1.1566  -1.0483  -0.9610  -0.8953  -0.6269  -0.6147  -0.2916  -0.2762
    -0.1284  -0.0902   0.0703   0.1885   0.2051   0.3616   0.4561   0.5537
     0.6793   0.7417   0.8147   0.9422   1.0621   1.1396   1.1596   1.1972
     1.3337   1.3553   1.4434   1.4947   1.6435   1.6772   1.7111   1.7444
     1.8216   1.8623   1.9489   2.0084   7.7179   8.2917   8.9704   9.2595
    10.3919  10.9613  10.9645  11.2749  11.3090  11.3777

     occupation numbers 
     1.0000   1.0000   1.0000   1.0000   1.0000   1.0000   1.0000   1.0000
     1.0000   1.0000   1.0000   1.0000   1.0000   1.0000   1.0000   1.0000
     1.0000   1.0000   1.0000   1.0000   1.0000   1.0000   1.0000   1.0000
     1.0000   1.0000   1.0000   1.0000   1.0000   1.0000   1.0000   1.0000
     1.0000   1.0000   1.0000   1.0000   1.0000   1.0000   1.0000   1.0000
     1.0000   1.0000   1.0000   1.0000   1.0000   1.0000   1.0000   1.0000
     1.0000   1.0000   1.0000   1.0000   1.0000   1.0000   1.0000   1.0000
     1.0000   1.0000   1.0000   1.0000   1.0000   1.0000   1.0000   1.0000
     1.0000   1.0000   1.0000   1.0000   1.0000   1.0000   1.0000   1.0000
     1.0000   1.0000   1.0000   1.0000   1.0000   1.0000   1.0000   1.0000
     1.0000   1.0000   1.0000   1.0000   1.0000   1.0000   1.0000   1.0000
     1.0000   1.0000   1.0000   1.0000   1.0000   1.0000   1.0000   1.0000
     1.0000   1.0000   1.0000   1.0000   0.0000   0.0000   0.0000   0.0000
     0.0000   0.0000   0.0000   0.0000   0.0000   0.0000

          k = 0.3333 0.0000 0.0000 ( 25578 PWs)   bands (ev):

   -94.6556 -94.6556 -94.6556 -94.6556 -58.5696 -58.5696 -58.5696 -58.5696
   -58.4300 -58.4300 -58.4300 -58.4300 -57.8805 -57.8805 -57.8805 -57.8805
   -18.5553 -18.4977 -18.4785 -18.4754 -16.3014 -16.2853 -16.2681 -16.1906
   -16.1485 -16.1436 -16.1308 -16.1278 -16.1203 -16.1169 -16.0848 -16.0842
    -6.5848  -6.4051  -6.3772  -6.3743  -4.4077  -4.4021  -4.3481  -4.3260
    -4.2458  -4.2091  -4.1979  -4.1313  -4.1240  -4.1134  -4.0891  -4.0832
    -2.2531  -2.1726  -2.1241  -2.0791  -2.0196  -2.0172  -1.8998  -1.8601
    -1.6367  -1.6030  -1.4816  -1.4492  -1.3572  -1.3408  -1.2195  -1.0408
    -1.0217  -0.9602  -0.8925  -0.7858  -0.6858  -0.5635  -0.4918  -0.3500
    -0.2871  -0.2341  -0.1254   0.1187   0.1743   0.2116   0.3668   0.3987
     0.4037   0.4943   0.6393   0.6505   0.8799   0.9108   0.9439   1.1562
     1.2266   1.3220   1.4484   1.6357   1.6444   1.6731   1.7833   1.7966
     1.9382   2.0011   2.0883   2.1614   7.8949   9.3350   9.5204   9.7561
    10.2875  10.6233  10.6974  10.8521  10.9294  11.0698

     occupation numbers 
     1.0000   1.0000   1.0000   1.0000   1.0000   1.0000   1.0000   1.0000
     1.0000   1.0000   1.0000   1.0000   1.0000   1.0000   1.0000   1.0000
     1.0000   1.0000   1.0000   1.0000   1.0000   1.0000   1.0000   1.0000
     1.0000   1.0000   1.0000   1.0000   1.0000   1.0000   1.0000   1.0000
     1.0000   1.0000   1.0000   1.0000   1.0000   1.0000   1.0000   1.0000
     1.0000   1.0000   1.0000   1.0000   1.0000   1.0000   1.0000   1.0000
     1.0000   1.0000   1.0000   1.0000   1.0000   1.0000   1.0000   1.0000
     1.0000   1.0000   1.0000   1.0000   1.0000   1.0000   1.0000   1.0000
     1.0000   1.0000   1.0000   1.0000   1.0000   1.0000   1.0000   1.0000
     1.0000   1.0000   1.0000   1.0000   1.0000   1.0000   1.0000   1.0000
     1.0000   1.0000   1.0000   1.0000   1.0000   1.0000   1.0000   1.0000
     1.0000   1.0000   1.0000   1.0000   1.0000   1.0000   1.0000   1.0000
     1.0000   1.0000   1.0000   1.0000   0.0000   0.0000   0.0000   0.0000
     0.0000   0.0000   0.0000   0.0000   0.0000   0.0000

          k = 0.3333 0.0000 0.1656 ( 25584 PWs)   bands (ev):

   -94.6556 -94.6556 -94.6556 -94.6556 -58.5696 -58.5696 -58.5696 -58.5696
   -58.4300 -58.4300 -58.4300 -58.4300 -57.8805 -57.8805 -57.8805 -57.8805
   -18.5431 -18.5154 -18.4767 -18.4724 -16.3013 -16.2968 -16.2382 -16.2033
   -16.1462 -16.1437 -16.1302 -16.1286 -16.1186 -16.1162 -16.0905 -16.0882
    -6.5499  -6.4689  -6.3657  -6.3583  -4.3897  -4.3838  -4.3450  -4.3340
    -4.2370  -4.2152  -4.1902  -4.1616  -4.1245  -4.1102  -4.1019  -4.0906
    -2.2503  -2.2163  -2.0939  -2.0713  -1.9785  -1.9531  -1.9171  -1.8701
    -1.6181  -1.5541  -1.5239  -1.3908  -1.3586  -1.3364  -1.2601  -1.1781
    -1.1428  -1.0446  -0.8058  -0.7743  -0.6529  -0.5871  -0.4258  -0.3919
    -0.3595  -0.2264  -0.0300   0.0642   0.1935   0.2346   0.4248   0.4376
     0.4991   0.5629   0.6434   0.6640   0.8168   0.8430   0.9783   1.1098
     1.2328   1.3822   1.4160   1.4758   1.6480   1.6900   1.8198   1.8847
     1.9120   2.0134   2.0702   2.1096   8.1152   8.6862   9.8276  10.0841
    10.2163  10.5820  10.6630  10.7471  10.9441  11.0227

     occupation numbers 
     1.0000   1.0000   1.0000   1.0000   1.0000   1.0000   1.0000   1.0000
     1.0000   1.0000   1.0000   1.0000   1.0000   1.0000   1.0000   1.0000
     1.0000   1.0000   1.0000   1.0000   1.0000   1.0000   1.0000   1.0000
     1.0000   1.0000   1.0000   1.0000   1.0000   1.0000   1.0000   1.0000
     1.0000   1.0000   1.0000   1.0000   1.0000   1.0000   1.0000   1.0000
     1.0000   1.0000   1.0000   1.0000   1.0000   1.0000   1.0000   1.0000
     1.0000   1.0000   1.0000   1.0000   1.0000   1.0000   1.0000   1.0000
     1.0000   1.0000   1.0000   1.0000   1.0000   1.0000   1.0000   1.0000
     1.0000   1.0000   1.0000   1.0000   1.0000   1.0000   1.0000   1.0000
     1.0000   1.0000   1.0000   1.0000   1.0000   1.0000   1.0000   1.0000
     1.0000   1.0000   1.0000   1.0000   1.0000   1.0000   1.0000   1.0000
     1.0000   1.0000   1.0000   1.0000   1.0000   1.0000   1.0000   1.0000
     1.0000   1.0000   1.0000   1.0000   0.0000   0.0000   0.0000   0.0000
     0.0000   0.0000   0.0000   0.0000   0.0000   0.0000

          k = 0.3333 0.2474 0.0000 ( 25587 PWs)   bands (ev):

   -94.6556 -94.6556 -94.6556 -94.6556 -58.5696 -58.5696 -58.5696 -58.5696
   -58.4300 -58.4300 -58.4300 -58.4300 -57.8805 -57.8805 -57.8805 -57.8805
   -18.5367 -18.5021 -18.4862 -18.4820 -16.2868 -16.2821 -16.2650 -16.2267
   -16.1468 -16.1428 -16.1299 -16.1271 -16.1141 -16.1134 -16.0846 -16.0842
    -6.5315  -6.4262  -6.3959  -6.3820  -4.4014  -4.4001  -4.3399  -4.3299
    -4.2502  -4.2307  -4.1780  -4.1547  -4.1193  -4.1086  -4.0787  -4.0783
    -2.2218  -2.1793  -2.1508  -2.1191  -1.9672  -1.9585  -1.8234  -1.8066
    -1.6718  -1.6474  -1.5473  -1.5004  -1.3515  -1.2587  -1.1970  -1.1443
    -1.0029  -0.9409  -0.8445  -0.8190  -0.6646  -0.6153  -0.5242  -0.4596
    -0.3529  -0.2163  -0.0115  -0.0009   0.0785   0.1399   0.4096   0.4113
     0.4609   0.5200   0.6338   0.7903   0.8562   1.0052   1.0164   1.0816
     1.1981   1.3170   1.4333   1.5568   1.7006   1.7218   1.7943   1.7960
     1.9622   2.0222   2.0575   2.0889   8.3061   9.2672   9.5782   9.7571
    10.2720  10.5428  10.6539  10.9153  11.0284  11.1164

     occupation numbers 
     1.0000   1.0000   1.0000   1.0000   1.0000   1.0000   1.0000   1.0000
     1.0000   1.0000   1.0000   1.0000   1.0000   1.0000   1.0000   1.0000
     1.0000   1.0000   1.0000   1.0000   1.0000   1.0000   1.0000   1.0000
     1.0000   1.0000   1.0000   1.0000   1.0000   1.0000   1.0000   1.0000
     1.0000   1.0000   1.0000   1.0000   1.0000   1.0000   1.0000   1.0000
     1.0000   1.0000   1.0000   1.0000   1.0000   1.0000   1.0000   1.0000
     1.0000   1.0000   1.0000   1.0000   1.0000   1.0000   1.0000   1.0000
     1.0000   1.0000   1.0000   1.0000   1.0000   1.0000   1.0000   1.0000
     1.0000   1.0000   1.0000   1.0000   1.0000   1.0000   1.0000   1.0000
     1.0000   1.0000   1.0000   1.0000   1.0000   1.0000   1.0000   1.0000
     1.0000   1.0000   1.0000   1.0000   1.0000   1.0000   1.0000   1.0000
     1.0000   1.0000   1.0000   1.0000   1.0000   1.0000   1.0000   1.0000
     1.0000   1.0000   1.0000   1.0000   0.0000   0.0000   0.0000   0.0000
     0.0000   0.0000   0.0000   0.0000   0.0000   0.0000

          k = 0.3333 0.2474 0.1656 ( 25583 PWs)   bands (ev):

   -94.6556 -94.6556 -94.6556 -94.6556 -58.5696 -58.5696 -58.5696 -58.5696
   -58.4300 -58.4300 -58.4300 -58.4300 -57.8805 -57.8805 -57.8805 -57.8805
   -18.5265 -18.5054 -18.4922 -18.4834 -16.2883 -16.2781 -16.2559 -16.2326
   -16.1432 -16.1403 -16.1317 -16.1293 -16.1155 -16.1063 -16.0931 -16.0888
    -6.5028  -6.4395  -6.4106  -6.3841  -4.3875  -4.3801  -4.3483  -4.3259
    -4.2455  -4.2201  -4.1881  -4.1565  -4.1359  -4.1251  -4.0889  -4.0731
    -2.2424  -2.1885  -2.1425  -2.0814  -1.9472  -1.9257  -1.8330  -1.7797
    -1.6860  -1.6065  -1.5332  -1.4751  -1.3670  -1.2900  -1.2378  -1.1164
    -1.0961  -1.0275  -0.9383  -0.8677  -0.6972  -0.6166  -0.5188  -0.3884
    -0.2191  -0.1479  -0.0342  -0.0074   0.1348   0.2139   0.2442   0.4487
     0.4986   0.5585   0.6805   0.7505   0.8540   0.9886   1.0492   1.1177
     1.2196   1.2847   1.4096   1.5019   1.6055   1.7610   1.8296   1.8806
     1.9062   2.0080   2.0290   2.0910   8.5055   9.0253   9.4073   9.7434
    10.4546  10.5632  10.6708  10.9709  11.0402  11.1549

     occupation numbers 
     1.0000   1.0000   1.0000   1.0000   1.0000   1.0000   1.0000   1.0000
     1.0000   1.0000   1.0000   1.0000   1.0000   1.0000   1.0000   1.0000
     1.0000   1.0000   1.0000   1.0000   1.0000   1.0000   1.0000   1.0000
     1.0000   1.0000   1.0000   1.0000   1.0000   1.0000   1.0000   1.0000
     1.0000   1.0000   1.0000   1.0000   1.0000   1.0000   1.0000   1.0000
     1.0000   1.0000   1.0000   1.0000   1.0000   1.0000   1.0000   1.0000
     1.0000   1.0000   1.0000   1.0000   1.0000   1.0000   1.0000   1.0000
     1.0000   1.0000   1.0000   1.0000   1.0000   1.0000   1.0000   1.0000
     1.0000   1.0000   1.0000   1.0000   1.0000   1.0000   1.0000   1.0000
     1.0000   1.0000   1.0000   1.0000   1.0000   1.0000   1.0000   1.0000
     1.0000   1.0000   1.0000   1.0000   1.0000   1.0000   1.0000   1.0000
     1.0000   1.0000   1.0000   1.0000   1.0000   1.0000   1.0000   1.0000
     1.0000   1.0000   1.0000   1.0000   0.0000   0.0000   0.0000   0.0000
     0.0000   0.0000   0.0000   0.0000   0.0000   0.0000

 ------ SPIN DOWN ----------


          k = 0.0000 0.0000 0.0000 ( 25545 PWs)   bands (ev):

   -92.3893 -92.3893 -92.3893 -92.3893 -55.2906 -55.2906 -55.2906 -55.2906
   -55.2385 -55.2385 -55.2385 -55.2385 -55.0039 -55.0039 -55.0039 -55.0039
   -18.3146 -18.2225 -18.2008 -18.1716 -15.9605 -15.8991 -15.8930 -15.7728
   -15.7645 -15.7581 -15.7467 -15.7343 -15.7288 -15.7169 -15.7091 -15.7057
    -6.4525  -6.0816  -6.0370  -5.8740  -4.0510  -3.9401  -3.7692  -3.6389
    -3.6310  -3.5864  -3.5723  -3.5703  -3.5618  -3.5462  -3.4674  -3.4508
    -1.2767  -1.2196  -1.1836  -1.1737  -1.1176  -1.0251  -0.8793  -0.8553
    -0.8312  -0.8196  -0.7370  -0.7319  -0.5033  -0.5016  -0.4421  -0.3392
    -0.2971  -0.1971  -0.1163  -0.0982   0.2380   0.5141   0.5704   0.6833
     0.7691   0.7790   0.9280   0.9702   1.1411   1.1776   1.3463   1.6074
     2.5401   2.6654   2.6916   2.7298   2.8097   2.8753   2.9447   3.2931
     3.4764   3.7467   3.7710   3.8028   3.8102   3.9151   3.9830   4.0158
     4.0778   4.0875   4.1113   4.2878   7.2205   9.0884   9.1030  10.4684
    11.0463  11.0916  11.2272  11.2376  11.3569  11.5608

     occupation numbers 
     1.0000   1.0000   1.0000   1.0000   1.0000   1.0000   1.0000   1.0000
     1.0000   1.0000   1.0000   1.0000   1.0000   1.0000   1.0000   1.0000
     1.0000   1.0000   1.0000   1.0000   1.0000   1.0000   1.0000   1.0000
     1.0000   1.0000   1.0000   1.0000   1.0000   1.0000   1.0000   1.0000
     1.0000   1.0000   1.0000   1.0000   1.0000   1.0000   1.0000   1.0000
     1.0000   1.0000   1.0000   1.0000   1.0000   1.0000   1.0000   1.0000
     1.0000   1.0000   1.0000   1.0000   1.0000   1.0000   1.0000   1.0000
     1.0000   1.0000   1.0000   1.0000   1.0000   1.0000   1.0000   1.0000
     1.0000   1.0000   1.0000   1.0000   1.0000   1.0000   1.0000   1.0000
     1.0000   1.0000   1.0000   1.0000   1.0000   1.0000   1.0000   1.0000
     1.0714   0.9207   0.8043   0.6005   0.2153   0.0584   0.0091   0.0000
     0.0000   0.0000   0.0000   0.0000   0.0000   0.0000   0.0000   0.0000
     0.0000   0.0000   0.0000   0.0000   0.0000   0.0000   0.0000   0.0000
     0.0000   0.0000   0.0000   0.0000   0.0000   0.0000

          k = 0.0000 0.0000 0.1656 ( 25571 PWs)   bands (ev):

   -92.3893 -92.3893 -92.3893 -92.3893 -55.2906 -55.2906 -55.2906 -55.2906
   -55.2385 -55.2385 -55.2385 -55.2385 -55.0039 -55.0039 -55.0039 -55.0039
   -18.2980 -18.2575 -18.1817 -18.1726 -15.9558 -15.9376 -15.8327 -15.7767
   -15.7703 -15.7657 -15.7427 -15.7363 -15.7280 -15.7203 -15.7146 -15.7087
    -6.3916  -6.2379  -5.9315  -5.8818  -4.0250  -3.9703  -3.7222  -3.6402
    -3.6388  -3.6272  -3.5756  -3.5744  -3.5417  -3.5413  -3.4783  -3.4649
    -1.2576  -1.2209  -1.1631  -1.1401  -1.1312  -1.0540  -0.8780  -0.8598
    -0.8301  -0.7976  -0.7369  -0.6749  -0.5372  -0.5050  -0.4526  -0.3850
    -0.3326  -0.2513  -0.1135  -0.0120   0.3132   0.4587   0.4673   0.6377
     0.7396   0.8438   0.9774   1.0224   1.1231   1.2370   1.3584   1.5367
     2.5699   2.6241   2.7418   2.7438   2.7968   2.7972   3.0602   3.2066
     3.5803   3.7295   3.7443   3.7815   3.8254   3.9009   3.9553   4.0021
     4.0834   4.0855   4.1580   4.2410   7.4896   8.1781  10.0800  10.5241
    10.8419  10.9737  11.0785  11.1447  11.4107  11.5518

     occupation numbers 
     1.0000   1.0000   1.0000   1.0000   1.0000   1.0000   1.0000   1.0000
     1.0000   1.0000   1.0000   1.0000   1.0000   1.0000   1.0000   1.0000
     1.0000   1.0000   1.0000   1.0000   1.0000   1.0000   1.0000   1.0000
     1.0000   1.0000   1.0000   1.0000   1.0000   1.0000   1.0000   1.0000
     1.0000   1.0000   1.0000   1.0000   1.0000   1.0000   1.0000   1.0000
     1.0000   1.0000   1.0000   1.0000   1.0000   1.0000   1.0000   1.0000
     1.0000   1.0000   1.0000   1.0000   1.0000   1.0000   1.0000   1.0000
     1.0000   1.0000   1.0000   1.0000   1.0000   1.0000   1.0000   1.0000
     1.0000   1.0000   1.0000   1.0000   1.0000   1.0000   1.0000   1.0000
     1.0000   1.0000   1.0000   1.0000   1.0000   1.0000   1.0000   1.0000
     1.0830   1.0410   0.5341   0.5234   0.2647   0.2630   0.0001   0.0000
     0.0000   0.0000   0.0000   0.0000   0.0000   0.0000   0.0000   0.0000
     0.0000   0.0000   0.0000   0.0000   0.0000   0.0000   0.0000   0.0000
     0.0000   0.0000   0.0000   0.0000   0.0000   0.0000

          k = 0.0000 0.2474 0.0000 ( 25605 PWs)   bands (ev):

   -92.3893 -92.3893 -92.3893 -92.3893 -55.2906 -55.2906 -55.2906 -55.2906
   -55.2385 -55.2385 -55.2385 -55.2385 -55.0039 -55.0039 -55.0039 -55.0039
   -18.2807 -18.2167 -18.2093 -18.2058 -15.9081 -15.9045 -15.9011 -15.8075
   -15.7632 -15.7544 -15.7520 -15.7452 -15.7212 -15.7167 -15.7081 -15.7065
    -6.3219  -6.0679  -6.0456  -6.0359  -3.9359  -3.9100  -3.8312  -3.7339
    -3.6313  -3.5946  -3.5804  -3.5748  -3.5190  -3.4956  -3.4734  -3.4527
    -1.2386  -1.1963  -1.1803  -1.1340  -1.1108  -1.0309  -1.0235  -0.9591
    -0.8521  -0.8139  -0.7856  -0.6134  -0.5198  -0.4847  -0.4166  -0.3910
    -0.2265  -0.1627  -0.1435  -0.1318   0.4384   0.5114   0.5189   0.6446
     0.7785   0.8080   0.8674   1.0439   1.0529   1.2955   1.2955   1.3361
     2.6088   2.6557   2.6571   2.7331   2.9190   2.9395   2.9657   3.1830
     3.5462   3.7027   3.7592   3.7850   3.9102   3.9674   3.9809   3.9891
     3.9923   4.0973   4.1019   4.2199   7.7951   9.1492   9.3391   9.3539
    10.6128  10.6980  11.3590  11.4751  11.6207  11.6274

     occupation numbers 
     1.0000   1.0000   1.0000   1.0000   1.0000   1.0000   1.0000   1.0000
     1.0000   1.0000   1.0000   1.0000   1.0000   1.0000   1.0000   1.0000
     1.0000   1.0000   1.0000   1.0000   1.0000   1.0000   1.0000   1.0000
     1.0000   1.0000   1.0000   1.0000   1.0000   1.0000   1.0000   1.0000
     1.0000   1.0000   1.0000   1.0000   1.0000   1.0000   1.0000   1.0000
     1.0000   1.0000   1.0000   1.0000   1.0000   1.0000   1.0000   1.0000
     1.0000   1.0000   1.0000   1.0000   1.0000   1.0000   1.0000   1.0000
     1.0000   1.0000   1.0000   1.0000   1.0000   1.0000   1.0000   1.0000
     1.0000   1.0000   1.0000   1.0000   1.0000   1.0000   1.0000   1.0000
     1.0000   1.0000   1.0000   1.0000   1.0000   1.0000   1.0000   1.0000
     1.0646   0.9564   0.9517   0.5821   0.0193   0.0107   0.0047   0.0000
     0.0000   0.0000   0.0000   0.0000   0.0000   0.0000   0.0000   0.0000
     0.0000   0.0000   0.0000   0.0000   0.0000   0.0000   0.0000   0.0000
     0.0000   0.0000   0.0000   0.0000   0.0000   0.0000

          k = 0.0000 0.2474 0.1656 ( 25544 PWs)   bands (ev):

   -92.3893 -92.3893 -92.3893 -92.3893 -55.2906 -55.2906 -55.2906 -55.2906
   -55.2385 -55.2385 -55.2385 -55.2385 -55.0039 -55.0039 -55.0039 -55.0039
   -18.2680 -18.2388 -18.2054 -18.2009 -15.9155 -15.9114 -15.8646 -15.8231
   -15.7623 -15.7583 -15.7507 -15.7472 -15.7190 -15.7140 -15.7136 -15.7082
    -6.2749  -6.1639  -6.0223  -6.0111  -3.9252  -3.9129  -3.7970  -3.7482
    -3.6230  -3.6047  -3.5725  -3.5707  -3.5255  -3.5107  -3.4834  -3.4708
    -1.2234  -1.1999  -1.1675  -1.1439  -1.0864  -1.0460  -0.9868  -0.9564
    -0.8530  -0.8323  -0.7271  -0.6485  -0.4978  -0.4875  -0.3996  -0.3849
    -0.3019  -0.2809  -0.1516  -0.0825   0.4330   0.4892   0.5938   0.6380
     0.7983   0.8329   0.9085   0.9714   1.0611   1.2151   1.3451   1.3567
     2.6171   2.6289   2.7065   2.7344   2.9082   2.9095   3.0302   3.1258
     3.6074   3.7142   3.7224   3.7646   3.9393   3.9456   3.9776   4.0120
     4.0129   4.0548   4.1185   4.1807   8.0152   8.5970   9.2852   9.6036
    10.6581  11.2343  11.2774  11.5473  11.5608  11.6737

     occupation numbers 
     1.0000   1.0000   1.0000   1.0000   1.0000   1.0000   1.0000   1.0000
     1.0000   1.0000   1.0000   1.0000   1.0000   1.0000   1.0000   1.0000
     1.0000   1.0000   1.0000   1.0000   1.0000   1.0000   1.0000   1.0000
     1.0000   1.0000   1.0000   1.0000   1.0000   1.0000   1.0000   1.0000
     1.0000   1.0000   1.0000   1.0000   1.0000   1.0000   1.0000   1.0000
     1.0000   1.0000   1.0000   1.0000   1.0000   1.0000   1.0000   1.0000
     1.0000   1.0000   1.0000   1.0000   1.0000   1.0000   1.0000   1.0000
     1.0000   1.0000   1.0000   1.0000   1.0000   1.0000   1.0000   1.0000
     1.0000   1.0000   1.0000   1.0000   1.0000   1.0000   1.0000   1.0000
     1.0000   1.0000   1.0000   1.0000   1.0000   1.0000   1.0000   1.0000
     1.0531   1.0313   0.7277   0.5750   0.0258   0.0249   0.0005   0.0000
     0.0000   0.0000   0.0000   0.0000   0.0000   0.0000   0.0000   0.0000
     0.0000   0.0000   0.0000   0.0000   0.0000   0.0000   0.0000   0.0000
     0.0000   0.0000   0.0000   0.0000   0.0000   0.0000

          k = 0.3333 0.0000 0.0000 ( 25578 PWs)   bands (ev):

   -92.3893 -92.3893 -92.3893 -92.3893 -55.2906 -55.2906 -55.2906 -55.2906
   -55.2385 -55.2385 -55.2385 -55.2385 -55.0039 -55.0039 -55.0039 -55.0039
   -18.2560 -18.1965 -18.1770 -18.1741 -15.9373 -15.9205 -15.9121 -15.8226
   -15.7810 -15.7799 -15.7565 -15.7527 -15.7470 -15.7446 -15.7170 -15.7163
    -6.2481  -5.9709  -5.9508  -5.9406  -4.0484  -3.9854  -3.9723  -3.7918
    -3.5729  -3.5440  -3.5347  -3.5276  -3.4977  -3.4685  -3.4339  -3.4318
    -1.3760  -1.3443  -1.1319  -1.1007  -1.0821  -1.0545  -1.0101  -0.8352
    -0.8190  -0.6666  -0.6604  -0.6517  -0.4277  -0.4077  -0.3606  -0.3414
    -0.2871  -0.2133  -0.1985  -0.0878   0.3101   0.3145   0.5199   0.6019
     0.7636   0.7995   0.8040   0.9741   1.1292   1.1570   1.2643   1.4270
     2.5399   2.6122   2.6577   2.6965   2.7754   2.8304   2.8360   3.0590
     3.5139   3.5428   3.6782   3.7914   3.8615   3.9341   4.0335   4.0412
     4.1071   4.1852   4.2245   4.3107   8.1889   9.6639   9.8019  10.0756
    10.6719  10.8965  10.9976  11.1967  11.2177  11.3262

     occupation numbers 
     1.0000   1.0000   1.0000   1.0000   1.0000   1.0000   1.0000   1.0000
     1.0000   1.0000   1.0000   1.0000   1.0000   1.0000   1.0000   1.0000
     1.0000   1.0000   1.0000   1.0000   1.0000   1.0000   1.0000   1.0000
     1.0000   1.0000   1.0000   1.0000   1.0000   1.0000   1.0000   1.0000
     1.0000   1.0000   1.0000   1.0000   1.0000   1.0000   1.0000   1.0000
     1.0000   1.0000   1.0000   1.0000   1.0000   1.0000   1.0000   1.0000
     1.0000   1.0000   1.0000   1.0000   1.0000   1.0000   1.0000   1.0000
     1.0000   1.0000   1.0000   1.0000   1.0000   1.0000   1.0000   1.0000
     1.0000   1.0000   1.0000   1.0000   1.0000   1.0000   1.0000   1.0000
     1.0000   1.0000   1.0000   1.0000   1.0000   1.0000   1.0000   1.0000
     1.0713   1.0602   0.9496   0.7797   0.3595   0.1495   0.1345   0.0001
     0.0000   0.0000   0.0000   0.0000   0.0000   0.0000   0.0000   0.0000
     0.0000   0.0000   0.0000   0.0000   0.0000   0.0000   0.0000   0.0000
     0.0000   0.0000   0.0000   0.0000   0.0000   0.0000

          k = 0.3333 0.0000 0.1656 ( 25584 PWs)   bands (ev):

   -92.3893 -92.3893 -92.3893 -92.3893 -55.2906 -55.2906 -55.2906 -55.2906
   -55.2385 -55.2385 -55.2385 -55.2385 -55.0039 -55.0039 -55.0039 -55.0039
   -18.2434 -18.2147 -18.1753 -18.1708 -15.9381 -15.9349 -15.8760 -15.8367
   -15.7802 -15.7791 -15.7561 -15.7536 -15.7462 -15.7451 -15.7214 -15.7196
    -6.1978  -6.0777  -5.9255  -5.9115  -4.0278  -3.9878  -3.9322  -3.8381
    -3.5649  -3.5584  -3.5464  -3.5346  -3.4763  -3.4692  -3.4439  -3.4397
    -1.3589  -1.3431  -1.1235  -1.1078  -1.0596  -1.0217  -0.9923  -0.8767
    -0.7776  -0.6832  -0.6531  -0.6485  -0.4612  -0.4270  -0.3730  -0.3586
    -0.3501  -0.2928  -0.1125  -0.0747   0.2972   0.4341   0.5012   0.6159
     0.7133   0.7392   0.8625   0.9663   1.1023   1.1443   1.3347   1.4016
     2.5578   2.5976   2.6564   2.6831   2.7816   2.7954   2.9304   3.0263
     3.5465   3.5591   3.6809   3.7450   3.8683   3.9163   4.0314   4.0464
     4.1208   4.1616   4.2384   4.2827   8.4100   8.9841  10.1668  10.3536
    10.6265  10.8725  10.9536  11.0849  11.2315  11.2859

     occupation numbers 
     1.0000   1.0000   1.0000   1.0000   1.0000   1.0000   1.0000   1.0000
     1.0000   1.0000   1.0000   1.0000   1.0000   1.0000   1.0000   1.0000
     1.0000   1.0000   1.0000   1.0000   1.0000   1.0000   1.0000   1.0000
     1.0000   1.0000   1.0000   1.0000   1.0000   1.0000   1.0000   1.0000
     1.0000   1.0000   1.0000   1.0000   1.0000   1.0000   1.0000   1.0000
     1.0000   1.0000   1.0000   1.0000   1.0000   1.0000   1.0000   1.0000
     1.0000   1.0000   1.0000   1.0000   1.0000   1.0000   1.0000   1.0000
     1.0000   1.0000   1.0000   1.0000   1.0000   1.0000   1.0000   1.0000
     1.0000   1.0000   1.0000   1.0000   1.0000   1.0000   1.0000   1.0000
     1.0000   1.0000   1.0000   1.0000   1.0000   1.0000   1.0000   1.0000
     1.0801   1.0754   0.9541   0.8449   0.3303   0.2702   0.0140   0.0005
     0.0000   0.0000   0.0000   0.0000   0.0000   0.0000   0.0000   0.0000
     0.0000   0.0000   0.0000   0.0000   0.0000   0.0000   0.0000   0.0000
     0.0000   0.0000   0.0000   0.0000   0.0000   0.0000

          k = 0.3333 0.2474 0.0000 ( 25587 PWs)   bands (ev):

   -92.3893 -92.3893 -92.3893 -92.3893 -55.2906 -55.2906 -55.2906 -55.2906
   -55.2385 -55.2385 -55.2385 -55.2385 -55.0039 -55.0039 -55.0039 -55.0039
   -18.2370 -18.2014 -18.1848 -18.1804 -15.9261 -15.9200 -15.9022 -15.8587
   -15.7791 -15.7785 -15.7581 -15.7564 -15.7389 -15.7378 -15.7166 -15.7162
    -6.1754  -6.0227  -5.9621  -5.9525  -4.0201  -3.9839  -3.8904  -3.7872
    -3.6329  -3.6072  -3.5458  -3.5190  -3.4749  -3.4745  -3.4350  -3.4304
    -1.2876  -1.2537  -1.1191  -1.0919  -1.0543  -1.0418  -0.9422  -0.9106
    -0.9016  -0.8033  -0.7684  -0.6534  -0.5551  -0.3972  -0.3666  -0.3092
    -0.2195  -0.1985  -0.1407  -0.0946   0.3668   0.3859   0.5210   0.5629
     0.6308   0.7083   0.8561   0.9465   1.1494   1.1637   1.2964   1.4808
     2.5290   2.5358   2.6804   2.7117   2.7934   2.8178   2.9227   3.0399
     3.4922   3.5120   3.7131   3.7602   3.9278   3.9381   4.0517   4.0708
     4.0877   4.2098   4.2100   4.2173   8.6127   9.6111   9.9295  10.0787
    10.5567  10.8522  10.9202  11.1965  11.3228  11.4257

     occupation numbers 
     1.0000   1.0000   1.0000   1.0000   1.0000   1.0000   1.0000   1.0000
     1.0000   1.0000   1.0000   1.0000   1.0000   1.0000   1.0000   1.0000
     1.0000   1.0000   1.0000   1.0000   1.0000   1.0000   1.0000   1.0000
     1.0000   1.0000   1.0000   1.0000   1.0000   1.0000   1.0000   1.0000
     1.0000   1.0000   1.0000   1.0000   1.0000   1.0000   1.0000   1.0000
     1.0000   1.0000   1.0000   1.0000   1.0000   1.0000   1.0000   1.0000
     1.0000   1.0000   1.0000   1.0000   1.0000   1.0000   1.0000   1.0000
     1.0000   1.0000   1.0000   1.0000   1.0000   1.0000   1.0000   1.0000
     1.0000   1.0000   1.0000   1.0000   1.0000   1.0000   1.0000   1.0000
     1.0000   1.0000   1.0000   1.0000   1.0000   1.0000   1.0000   1.0000
     1.0644   1.0687   0.8573   0.7003   0.2786   0.1877   0.0174   0.0003
     0.0000   0.0000   0.0000   0.0000   0.0000   0.0000   0.0000   0.0000
     0.0000   0.0000   0.0000   0.0000   0.0000   0.0000   0.0000   0.0000
     0.0000   0.0000   0.0000   0.0000   0.0000   0.0000

          k = 0.3333 0.2474 0.1656 ( 25583 PWs)   bands (ev):

   -92.3893 -92.3893 -92.3893 -92.3893 -55.2906 -55.2906 -55.2906 -55.2906
   -55.2385 -55.2385 -55.2385 -55.2385 -55.0039 -55.0039 -55.0039 -55.0039
   -18.2264 -18.2045 -18.1913 -18.1820 -15.9282 -15.9126 -15.8949 -15.8646
   -15.7780 -15.7732 -15.7631 -15.7565 -15.7401 -15.7337 -15.7235 -15.7201
    -6.1324  -6.0353  -5.9966  -5.9523  -3.9986  -3.9514  -3.9025  -3.8114
    -3.6357  -3.5958  -3.5350  -3.5181  -3.4986  -3.4908  -3.4434  -3.4270
    -1.3157  -1.2119  -1.1276  -1.0825  -1.0607  -1.0020  -0.9539  -0.8968
    -0.8724  -0.8061  -0.7667  -0.6553  -0.5548  -0.4431  -0.3809  -0.3003
    -0.2800  -0.2236  -0.1215  -0.0574   0.3661   0.4067   0.4477   0.5167
     0.6953   0.7678   0.8376   0.9698   1.1259   1.2165   1.2857   1.4332
     2.5218   2.5686   2.7017   2.7336   2.7781   2.8347   2.8934   3.0043
     3.5329   3.5876   3.6781   3.7228   3.8769   3.9990   4.0443   4.0635
     4.0885   4.1708   4.1855   4.2423   8.8136   9.3400   9.7512  10.0981
    10.7255  10.8530  10.9785  11.2499  11.3806  11.4103

     occupation numbers 
     1.0000   1.0000   1.0000   1.0000   1.0000   1.0000   1.0000   1.0000
     1.0000   1.0000   1.0000   1.0000   1.0000   1.0000   1.0000   1.0000
     1.0000   1.0000   1.0000   1.0000   1.0000   1.0000   1.0000   1.0000
     1.0000   1.0000   1.0000   1.0000   1.0000   1.0000   1.0000   1.0000
     1.0000   1.0000   1.0000   1.0000   1.0000   1.0000   1.0000   1.0000
     1.0000   1.0000   1.0000   1.0000   1.0000   1.0000   1.0000   1.0000
     1.0000   1.0000   1.0000   1.0000   1.0000   1.0000   1.0000   1.0000
     1.0000   1.0000   1.0000   1.0000   1.0000   1.0000   1.0000   1.0000
     1.0000   1.0000   1.0000   1.0000   1.0000   1.0000   1.0000   1.0000
     1.0000   1.0000   1.0000   1.0000   1.0000   1.0000   1.0000   1.0000
     1.0595   1.0829   0.7529   0.5794   0.3466   0.1378   0.0378   0.0012
     0.0000   0.0000   0.0000   0.0000   0.0000   0.0000   0.0000   0.0000
     0.0000   0.0000   0.0000   0.0000   0.0000   0.0000   0.0000   0.0000
     0.0000   0.0000   0.0000   0.0000   0.0000   0.0000

     the Fermi energy is     2.7670 ev

!    total energy              =   -1856.45435286 Ry
     estimated scf accuracy    <          5.2E-09 Ry
     smearing contrib. (-TS)   =      -0.00156834 Ry
     internal energy E=F+TS    =   -1856.45278453 Ry

     The total energy is F=E-TS. E is the sum of the following terms:
     one-electron contribution =   -1391.13239853 Ry
     hartree contribution      =     754.80654421 Ry
     xc contribution           =    -323.29489037 Ry
     ewald contribution        =    -744.65060822 Ry
     one-center paw contrib.   =    -152.18143162 Ry
      -> PAW hartree energy AE =       0.00000000 Ry
      -> PAW hartree energy PS =       0.00000000 Ry
      -> PAW xc energy AE      =       0.00000000 Ry
      -> PAW xc energy PS      =       0.00000000 Ry
      -> total E_H with PAW    =     754.80654421 Ry
      -> total E_XC with PAW   =    -323.29489037 Ry

     total magnetization       =    16.00 Bohr mag/cell
     absolute magnetization    =    16.07 Bohr mag/cell

     convergence has been achieved in  17 iterations

     Writing all to output data dir ./tmp_final/CoPO4.save/ :
     XML data file, charge density, pseudopotentials, collected wavefunctions

     init_run     :      5.36s CPU      5.03s WALL (       1 calls)
     electrons    :    301.27s CPU    285.91s WALL (       1 calls)

     Called by init_run:
     wfcinit      :      4.52s CPU      4.17s WALL (       1 calls)
     wfcinit:atom :      0.03s CPU      0.03s WALL (      16 calls)
     wfcinit:wfcr :      4.18s CPU      3.83s WALL (      16 calls)
     potinit      :      0.34s CPU      0.34s WALL (       1 calls)
     hinit0       :      0.17s CPU      0.18s WALL (       1 calls)

     Called by electrons:
     c_bands      :    248.03s CPU    236.21s WALL (      17 calls)
     sum_band     :     41.32s CPU     38.24s WALL (      17 calls)
     v_of_rho     :      2.84s CPU      2.89s WALL (      18 calls)
     v_h          :      0.10s CPU      0.10s WALL (      18 calls)
     v_xc         :      2.75s CPU      2.79s WALL (      18 calls)
     newd         :      5.03s CPU      4.50s WALL (      18 calls)
     PAW_pot      :      3.84s CPU      3.85s WALL (      18 calls)
     mix_rho      :      0.47s CPU      0.49s WALL (      17 calls)

     Called by c_bands:
     init_us_2    :      2.15s CPU      2.15s WALL (     560 calls)
     cegterg      :    240.96s CPU    229.11s WALL (     272 calls)

     Called by sum_band:
     sum_band:wei :      0.02s CPU      0.02s WALL (      17 calls)
     sum_band:loo :     32.25s CPU     29.39s WALL (      17 calls)
     sum_band:buf :      0.25s CPU      0.25s WALL (     272 calls)
     sum_band:ini :      1.05s CPU      1.05s WALL (     272 calls)
     sum_band:cal :      9.84s CPU      6.90s WALL (     272 calls)
     sum_band:bec :      0.03s CPU      0.03s WALL (     272 calls)
     addusdens    :      8.52s CPU      8.28s WALL (      17 calls)
                                        0.00s GPU  (      17 calls)
     addusd:skk   :      0.05s CPU      0.05s WALL (      34 calls)
                                        0.00s GPU  (      34 calls)

     Called by *egterg:
     cdiaghg      :     12.63s CPU     12.66s WALL (    1334 calls)
     cegterg:over :     20.46s CPU     20.54s WALL (    1062 calls)
     cegterg:upda :     16.91s CPU     16.98s WALL (    1062 calls)
     cegterg:last :     18.70s CPU     18.73s WALL (     515 calls)
     h_psi        :    147.93s CPU    138.55s WALL (    1350 calls)
     s_psi        :     19.37s CPU     16.31s WALL (    1350 calls)
     g_psi        :      0.42s CPU      0.42s WALL (    1062 calls)

     Called by h_psi:
     h_psi:calbec :     27.65s CPU     21.72s WALL (    1350 calls)
     vloc_psi     :     97.53s CPU     97.99s WALL (    1350 calls)
                                        0.00s GPU  (    1350 calls)
     add_vuspsi   :     22.14s CPU     18.22s WALL (    1350 calls)

     General routines
     calbec       :     37.49s CPU     28.62s WALL (    1622 calls)
     fft          :      1.61s CPU      1.62s WALL (     444 calls)
     ffts         :      0.08s CPU      0.08s WALL (      70 calls)
     fftw         :    108.07s CPU    108.53s WALL (  179478 calls)
     interpolate  :      0.19s CPU      0.19s WALL (      36 calls)

     Parallel routines

     PAW routines
     PAW_pot      :      3.84s CPU      3.85s WALL (      18 calls)
     PAW_symme    :      0.00s CPU      0.00s WALL (      35 calls)

     PWSCF        :   5m 6.87s CPU   4m51.31s WALL


   This run was terminated on:   9:52:11  30Aug2026            

=------------------------------------------------------------------------------=
   JOB DONE.
=------------------------------------------------------------------------------=
