
     Program PWSCF v.7.5 starts on 30Aug2026 at 13: 3:48 

     This program is part of the open-source Quantum ESPRESSO suite
     for quantum simulation of materials; please cite
         "P. Giannozzi et al., J. Phys.:Condens. Matter 21 395502 (2009);
         "P. Giannozzi et al., J. Phys.:Condens. Matter 29 465901 (2017);
         "P. Giannozzi et al., J. Chem. Phys. 152 154105 (2020);
          URL http://www.quantum-espresso.org", 
     in publications or presentations arising from this work. More details at
     http://www.quantum-espresso.org/quote

     Parallel version (MPI), running on     4 processors

     MPI processes distributed on     1 nodes
     0 MiB available memory on the printing compute node when the environment starts

     Reading input from Li_vc_relax.in

     Current dimensions of program PWSCF are:
     Max number of different atomic species (ntypx) = 10
     Max number of k-points (npk) =  40000
     Max angular momentum in pseudopotentials (lmaxx) =  4

     R & G space division:  proc/nbgrp/npool/nimage =       4
     Subspace diagonalization in iterative solution of the eigenvalue problem:
     a serial algorithm will be used


     Parallelization info
     --------------------
     sticks:   dense  smooth     PW     G-vecs:    dense   smooth      PW
     Min         333     172     53                 7625     2847     490
     Max         334     173     54                 7626     2850     491
     Sum        1335     689    213                30501    11393    1961

     Using Slab Decomposition



     bravais-lattice index     =            3
     lattice parameter (alat)  =       6.6000  a.u.
     unit-cell volume          =     143.7480 (a.u.)^3
     number of atoms/cell      =            1
     number of atomic types    =            1
     number of electrons       =         3.00
     number of Kohn-Sham states=            6
     kinetic-energy cutoff     =      70.0000  Ry
     charge density cutoff     =     540.0000  Ry
     scf convergence threshold =      1.0E-10
     mixing beta               =       0.3000
     number of iterations used =            8  plain     mixing
     energy convergence thresh.=      1.0E-04
     force convergence thresh. =      1.0E-04
     press convergence thresh. =      5.0E-01
     Exchange-correlation= PBE
                           (   1   4   3   4   0   0   0)
     nstep                     =           50


     celldm(1)=   6.600000  celldm(2)=   0.000000  celldm(3)=   0.000000
     celldm(4)=   0.000000  celldm(5)=   0.000000  celldm(6)=   0.000000

     crystal axes: (cart. coord. in units of alat)
               a(1) = (   0.500000   0.500000   0.500000 )  
               a(2) = (  -0.500000   0.500000   0.500000 )  
               a(3) = (  -0.500000  -0.500000   0.500000 )  

     reciprocal axes: (cart. coord. in units 2 pi/alat)
               b(1) = (  1.000000  0.000000  1.000000 )  
               b(2) = ( -1.000000  1.000000  0.000000 )  
               b(3) = (  0.000000 -1.000000  1.000000 )  


     PseudoPot. # 1 for Li read from file:
     /Users/qiqi/battery/dft/pseudo/Li.us.pbe.z_3.uspp.gbrv.v1.4.upf
     MD5 check sum: ab40f926ca6decaa01295ae7eb5ebb1a
     Pseudo is Ultrasoft, Zval =  3.0
     
     Using radial grid of  751 points,  5 beta functions with: 
                l(1) =   0
                l(2) =   0
                l(3) =   0
                l(4) =   1
                l(5) =   1
     Q(r) pseudized with 0 coefficients 


     atomic species   valence    mass     pseudopotential
     Li                3.00     6.94100     Li( 1.00)

     48 Sym. Ops., with inversion, found


                                    s                        frac. trans.

      isym =  1     identity                                     

 cryst.   s( 1) = (     1          0          0      )
                  (     0          1          0      )
                  (     0          0          1      )

 cart.    s( 1) = (  1.0000000  0.0000000  0.0000000 )
                  (  0.0000000  1.0000000  0.0000000 )
                  (  0.0000000  0.0000000  1.0000000 )


      isym =  2     180 deg rotation - cart. axis [0,0,1]        

 cryst.   s( 2) = (     0          0          1      )
                  (     1         -1          1      )
                  (     1          0          0      )

 cart.    s( 2) = ( -1.0000000  0.0000000  0.0000000 )
                  (  0.0000000 -1.0000000  0.0000000 )
                  (  0.0000000  0.0000000  1.0000000 )


      isym =  3     180 deg rotation - cart. axis [0,1,0]        

 cryst.   s( 3) = (    -1          1         -1      )
                  (     0          0         -1      )
                  (     0         -1          0      )

 cart.    s( 3) = ( -1.0000000  0.0000000  0.0000000 )
                  (  0.0000000  1.0000000  0.0000000 )
                  (  0.0000000  0.0000000 -1.0000000 )


      isym =  4     180 deg rotation - cart. axis [1,0,0]        

 cryst.   s( 4) = (     0         -1          0      )
                  (    -1          0          0      )
                  (    -1          1         -1      )

 cart.    s( 4) = (  1.0000000  0.0000000  0.0000000 )
                  (  0.0000000 -1.0000000  0.0000000 )
                  (  0.0000000  0.0000000 -1.0000000 )


      isym =  5     180 deg rotation - cart. axis [1,1,0]        

 cryst.   s( 5) = (     0          0         -1      )
                  (     0         -1          0      )
                  (    -1          0          0      )

 cart.    s( 5) = (  0.0000000  1.0000000  0.0000000 )
                  (  1.0000000  0.0000000  0.0000000 )
                  (  0.0000000  0.0000000 -1.0000000 )


      isym =  6     180 deg rotation - cart. axis [1,-1,0]       

 cryst.   s( 6) = (    -1          0          0      )
                  (    -1          1         -1      )
                  (     0          0         -1      )

 cart.    s( 6) = (  0.0000000 -1.0000000  0.0000000 )
                  ( -1.0000000  0.0000000  0.0000000 )
                  (  0.0000000  0.0000000 -1.0000000 )


      isym =  7      90 deg rotation - cart. axis [0,0,-1]       

 cryst.   s( 7) = (     1         -1          1      )
                  (     1          0          0      )
                  (     0          1          0      )

 cart.    s( 7) = (  0.0000000  1.0000000  0.0000000 )
                  ( -1.0000000  0.0000000  0.0000000 )
                  (  0.0000000  0.0000000  1.0000000 )


      isym =  8      90 deg rotation - cart. axis [0,0,1]        

 cryst.   s( 8) = (     0          1          0      )
                  (     0          0          1      )
                  (     1         -1          1      )

 cart.    s( 8) = (  0.0000000 -1.0000000  0.0000000 )
                  (  1.0000000  0.0000000  0.0000000 )
                  (  0.0000000  0.0000000  1.0000000 )


      isym =  9     180 deg rotation - cart. axis [1,0,1]        

 cryst.   s( 9) = (     1         -1          1      )
                  (     0         -1          0      )
                  (     0          0         -1      )

 cart.    s( 9) = (  0.0000000  0.0000000  1.0000000 )
                  (  0.0000000 -1.0000000  0.0000000 )
                  (  1.0000000  0.0000000  0.0000000 )


      isym = 10     180 deg rotation - cart. axis [-1,0,1]       

 cryst.   s(10) = (    -1          0          0      )
                  (     0          0          1      )
                  (     0          1          0      )

 cart.    s(10) = (  0.0000000  0.0000000 -1.0000000 )
                  (  0.0000000 -1.0000000  0.0000000 )
                  ( -1.0000000  0.0000000  0.0000000 )


      isym = 11      90 deg rotation - cart. axis [0,1,0]        

 cryst.   s(11) = (     0          0         -1      )
                  (     1          0          0      )
                  (     1         -1          1      )

 cart.    s(11) = (  0.0000000  0.0000000  1.0000000 )
                  (  0.0000000  1.0000000  0.0000000 )
                  ( -1.0000000  0.0000000  0.0000000 )


      isym = 12      90 deg rotation - cart. axis [0,-1,0]       

 cryst.   s(12) = (     0          1          0      )
                  (    -1          1         -1      )
                  (    -1          0          0      )

 cart.    s(12) = (  0.0000000  0.0000000 -1.0000000 )
                  (  0.0000000  1.0000000  0.0000000 )
                  (  1.0000000  0.0000000  0.0000000 )


      isym = 13     180 deg rotation - cart. axis [0,1,1]        

 cryst.   s(13) = (     0          1          0      )
                  (     1          0          0      )
                  (     0          0         -1      )

 cart.    s(13) = ( -1.0000000  0.0000000  0.0000000 )
                  (  0.0000000  0.0000000  1.0000000 )
                  (  0.0000000  1.0000000  0.0000000 )


      isym = 14     180 deg rotation - cart. axis [0,1,-1]       

 cryst.   s(14) = (    -1          0          0      )
                  (     0         -1          0      )
                  (     1         -1          1      )

 cart.    s(14) = ( -1.0000000  0.0000000  0.0000000 )
                  (  0.0000000  0.0000000 -1.0000000 )
                  (  0.0000000 -1.0000000  0.0000000 )


      isym = 15      90 deg rotation - cart. axis [-1,0,0]       

 cryst.   s(15) = (     0          0         -1      )
                  (    -1          1         -1      )
                  (     0          1          0      )

 cart.    s(15) = (  1.0000000  0.0000000  0.0000000 )
                  (  0.0000000  0.0000000  1.0000000 )
                  (  0.0000000 -1.0000000  0.0000000 )


      isym = 16      90 deg rotation - cart. axis [1,0,0]        

 cryst.   s(16) = (     1         -1          1      )
                  (     0          0          1      )
                  (    -1          0          0      )

 cart.    s(16) = (  1.0000000  0.0000000  0.0000000 )
                  (  0.0000000  0.0000000 -1.0000000 )
                  (  0.0000000  1.0000000  0.0000000 )


      isym = 17     120 deg rotation - cart. axis [-1,-1,-1]     

 cryst.   s(17) = (     1          0          0      )
                  (     0          0         -1      )
                  (    -1          1         -1      )

 cart.    s(17) = (  0.0000000  1.0000000  0.0000000 )
                  (  0.0000000  0.0000000  1.0000000 )
                  (  1.0000000  0.0000000  0.0000000 )


      isym = 18     120 deg rotation - cart. axis [-1,1,1]       

 cryst.   s(18) = (    -1          1         -1      )
                  (     0          1          0      )
                  (     1          0          0      )

 cart.    s(18) = (  0.0000000 -1.0000000  0.0000000 )
                  (  0.0000000  0.0000000  1.0000000 )
                  ( -1.0000000  0.0000000  0.0000000 )


      isym = 19     120 deg rotation - cart. axis [1,1,-1]       

 cryst.   s(19) = (     0         -1          0      )
                  (     1         -1          1      )
                  (     0          0          1      )

 cart.    s(19) = (  0.0000000  1.0000000  0.0000000 )
                  (  0.0000000  0.0000000 -1.0000000 )
                  ( -1.0000000  0.0000000  0.0000000 )


      isym = 20     120 deg rotation - cart. axis [1,-1,1]       

 cryst.   s(20) = (     0          0          1      )
                  (    -1          0          0      )
                  (     0         -1          0      )

 cart.    s(20) = (  0.0000000 -1.0000000  0.0000000 )
                  (  0.0000000  0.0000000 -1.0000000 )
                  (  1.0000000  0.0000000  0.0000000 )


      isym = 21     120 deg rotation - cart. axis [1,1,1]        

 cryst.   s(21) = (     1          0          0      )
                  (     1         -1          1      )
                  (     0         -1          0      )

 cart.    s(21) = (  0.0000000  0.0000000  1.0000000 )
                  (  1.0000000  0.0000000  0.0000000 )
                  (  0.0000000  1.0000000  0.0000000 )


      isym = 22     120 deg rotation - cart. axis [-1,1,-1]      

 cryst.   s(22) = (     0         -1          0      )
                  (     0          0         -1      )
                  (     1          0          0      )

 cart.    s(22) = (  0.0000000  0.0000000  1.0000000 )
                  ( -1.0000000  0.0000000  0.0000000 )
                  (  0.0000000 -1.0000000  0.0000000 )


      isym = 23     120 deg rotation - cart. axis [1,-1,-1]      

 cryst.   s(23) = (     0          0          1      )
                  (     0          1          0      )
                  (    -1          1         -1      )

 cart.    s(23) = (  0.0000000  0.0000000 -1.0000000 )
                  ( -1.0000000  0.0000000  0.0000000 )
                  (  0.0000000  1.0000000  0.0000000 )


      isym = 24     120 deg rotation - cart. axis [-1,-1,1]      

 cryst.   s(24) = (    -1          1         -1      )
                  (    -1          0          0      )
                  (     0          0          1      )

 cart.    s(24) = (  0.0000000  0.0000000 -1.0000000 )
                  (  1.0000000  0.0000000  0.0000000 )
                  (  0.0000000 -1.0000000  0.0000000 )


      isym = 25     inversion                                    

 cryst.   s(25) = (    -1          0          0      )
                  (     0         -1          0      )
                  (     0          0         -1      )

 cart.    s(25) = ( -1.0000000  0.0000000  0.0000000 )
                  (  0.0000000 -1.0000000  0.0000000 )
                  (  0.0000000  0.0000000 -1.0000000 )


      isym = 26     inv. 180 deg rotation - cart. axis [0,0,1]   

 cryst.   s(26) = (     0          0         -1      )
                  (    -1          1         -1      )
                  (    -1          0          0      )

 cart.    s(26) = (  1.0000000  0.0000000  0.0000000 )
                  (  0.0000000  1.0000000  0.0000000 )
                  (  0.0000000  0.0000000 -1.0000000 )


      isym = 27     inv. 180 deg rotation - cart. axis [0,1,0]   

 cryst.   s(27) = (     1         -1          1      )
                  (     0          0          1      )
                  (     0          1          0      )

 cart.    s(27) = (  1.0000000  0.0000000  0.0000000 )
                  (  0.0000000 -1.0000000  0.0000000 )
                  (  0.0000000  0.0000000  1.0000000 )


      isym = 28     inv. 180 deg rotation - cart. axis [1,0,0]   

 cryst.   s(28) = (     0          1          0      )
                  (     1          0          0      )
                  (     1         -1          1      )

 cart.    s(28) = ( -1.0000000  0.0000000  0.0000000 )
                  (  0.0000000  1.0000000  0.0000000 )
                  (  0.0000000  0.0000000  1.0000000 )


      isym = 29     inv. 180 deg rotation - cart. axis [1,1,0]   

 cryst.   s(29) = (     0          0          1      )
                  (     0          1          0      )
                  (     1          0          0      )

 cart.    s(29) = (  0.0000000 -1.0000000  0.0000000 )
                  ( -1.0000000  0.0000000  0.0000000 )
                  (  0.0000000  0.0000000  1.0000000 )


      isym = 30     inv. 180 deg rotation - cart. axis [1,-1,0]  

 cryst.   s(30) = (     1          0          0      )
                  (     1         -1          1      )
                  (     0          0          1      )

 cart.    s(30) = (  0.0000000  1.0000000  0.0000000 )
                  (  1.0000000  0.0000000  0.0000000 )
                  (  0.0000000  0.0000000  1.0000000 )


      isym = 31     inv.  90 deg rotation - cart. axis [0,0,-1]  

 cryst.   s(31) = (    -1          1         -1      )
                  (    -1          0          0      )
                  (     0         -1          0      )

 cart.    s(31) = (  0.0000000 -1.0000000  0.0000000 )
                  (  1.0000000  0.0000000  0.0000000 )
                  (  0.0000000  0.0000000 -1.0000000 )


      isym = 32     inv.  90 deg rotation - cart. axis [0,0,1]   

 cryst.   s(32) = (     0         -1          0      )
                  (     0          0         -1      )
                  (    -1          1         -1      )

 cart.    s(32) = (  0.0000000  1.0000000  0.0000000 )
                  ( -1.0000000  0.0000000  0.0000000 )
                  (  0.0000000  0.0000000 -1.0000000 )


      isym = 33     inv. 180 deg rotation - cart. axis [1,0,1]   

 cryst.   s(33) = (    -1          1         -1      )
                  (     0          1          0      )
                  (     0          0          1      )

 cart.    s(33) = (  0.0000000  0.0000000 -1.0000000 )
                  (  0.0000000  1.0000000  0.0000000 )
                  ( -1.0000000  0.0000000  0.0000000 )


      isym = 34     inv. 180 deg rotation - cart. axis [-1,0,1]  

 cryst.   s(34) = (     1          0          0      )
                  (     0          0         -1      )
                  (     0         -1          0      )

 cart.    s(34) = (  0.0000000  0.0000000  1.0000000 )
                  (  0.0000000  1.0000000  0.0000000 )
                  (  1.0000000  0.0000000  0.0000000 )


      isym = 35     inv.  90 deg rotation - cart. axis [0,1,0]   

 cryst.   s(35) = (     0          0          1      )
                  (    -1          0          0      )
                  (    -1          1         -1      )

 cart.    s(35) = (  0.0000000  0.0000000 -1.0000000 )
                  (  0.0000000 -1.0000000  0.0000000 )
                  (  1.0000000  0.0000000  0.0000000 )


      isym = 36     inv.  90 deg rotation - cart. axis [0,-1,0]  

 cryst.   s(36) = (     0         -1          0      )
                  (     1         -1          1      )
                  (     1          0          0      )

 cart.    s(36) = (  0.0000000  0.0000000  1.0000000 )
                  (  0.0000000 -1.0000000  0.0000000 )
                  ( -1.0000000  0.0000000  0.0000000 )


      isym = 37     inv. 180 deg rotation - cart. axis [0,1,1]   

 cryst.   s(37) = (     0         -1          0      )
                  (    -1          0          0      )
                  (     0          0          1      )

 cart.    s(37) = (  1.0000000  0.0000000  0.0000000 )
                  (  0.0000000  0.0000000 -1.0000000 )
                  (  0.0000000 -1.0000000  0.0000000 )


      isym = 38     inv. 180 deg rotation - cart. axis [0,1,-1]  

 cryst.   s(38) = (     1          0          0      )
                  (     0          1          0      )
                  (    -1          1         -1      )

 cart.    s(38) = (  1.0000000  0.0000000  0.0000000 )
                  (  0.0000000  0.0000000  1.0000000 )
                  (  0.0000000  1.0000000  0.0000000 )


      isym = 39     inv.  90 deg rotation - cart. axis [-1,0,0]  

 cryst.   s(39) = (     0          0          1      )
                  (     1         -1          1      )
                  (     0         -1          0      )

 cart.    s(39) = ( -1.0000000  0.0000000  0.0000000 )
                  (  0.0000000  0.0000000 -1.0000000 )
                  (  0.0000000  1.0000000  0.0000000 )


      isym = 40     inv.  90 deg rotation - cart. axis [1,0,0]   

 cryst.   s(40) = (    -1          1         -1      )
                  (     0          0         -1      )
                  (     1          0          0      )

 cart.    s(40) = ( -1.0000000  0.0000000  0.0000000 )
                  (  0.0000000  0.0000000  1.0000000 )
                  (  0.0000000 -1.0000000  0.0000000 )


      isym = 41     inv. 120 deg rotation - cart. axis [-1,-1,-1]

 cryst.   s(41) = (    -1          0          0      )
                  (     0          0          1      )
                  (     1         -1          1      )

 cart.    s(41) = (  0.0000000 -1.0000000  0.0000000 )
                  (  0.0000000  0.0000000 -1.0000000 )
                  ( -1.0000000  0.0000000  0.0000000 )


      isym = 42     inv. 120 deg rotation - cart. axis [-1,1,1]  

 cryst.   s(42) = (     1         -1          1      )
                  (     0         -1          0      )
                  (    -1          0          0      )

 cart.    s(42) = (  0.0000000  1.0000000  0.0000000 )
                  (  0.0000000  0.0000000 -1.0000000 )
                  (  1.0000000  0.0000000  0.0000000 )


      isym = 43     inv. 120 deg rotation - cart. axis [1,1,-1]  

 cryst.   s(43) = (     0          1          0      )
                  (    -1          1         -1      )
                  (     0          0         -1      )

 cart.    s(43) = (  0.0000000 -1.0000000  0.0000000 )
                  (  0.0000000  0.0000000  1.0000000 )
                  (  1.0000000  0.0000000  0.0000000 )


      isym = 44     inv. 120 deg rotation - cart. axis [1,-1,1]  

 cryst.   s(44) = (     0          0         -1      )
                  (     1          0          0      )
                  (     0          1          0      )

 cart.    s(44) = (  0.0000000  1.0000000  0.0000000 )
                  (  0.0000000  0.0000000  1.0000000 )
                  ( -1.0000000  0.0000000  0.0000000 )


      isym = 45     inv. 120 deg rotation - cart. axis [1,1,1]   

 cryst.   s(45) = (    -1          0          0      )
                  (    -1          1         -1      )
                  (     0          1          0      )

 cart.    s(45) = (  0.0000000  0.0000000 -1.0000000 )
                  ( -1.0000000  0.0000000  0.0000000 )
                  (  0.0000000 -1.0000000  0.0000000 )


      isym = 46     inv. 120 deg rotation - cart. axis [-1,1,-1] 

 cryst.   s(46) = (     0          1          0      )
                  (     0          0          1      )
                  (    -1          0          0      )

 cart.    s(46) = (  0.0000000  0.0000000 -1.0000000 )
                  (  1.0000000  0.0000000  0.0000000 )
                  (  0.0000000  1.0000000  0.0000000 )


      isym = 47     inv. 120 deg rotation - cart. axis [1,-1,-1] 

 cryst.   s(47) = (     0          0         -1      )
                  (     0         -1          0      )
                  (     1         -1          1      )

 cart.    s(47) = (  0.0000000  0.0000000  1.0000000 )
                  (  1.0000000  0.0000000  0.0000000 )
                  (  0.0000000 -1.0000000  0.0000000 )


      isym = 48     inv. 120 deg rotation - cart. axis [-1,-1,1] 

 cryst.   s(48) = (     1         -1          1      )
                  (     1          0          0      )
                  (     0          0         -1      )

 cart.    s(48) = (  0.0000000  0.0000000  1.0000000 )
                  ( -1.0000000  0.0000000  0.0000000 )
                  (  0.0000000  1.0000000  0.0000000 )


     point group O_h (m-3m) 
     there are 10 classes
     the character table:

       E     8C3   3C2   6C4   6C2'  i     8S6   3s_h  6S4   6s_d 
A_1g   1.00  1.00  1.00  1.00  1.00  1.00  1.00  1.00  1.00  1.00
A_2g   1.00  1.00  1.00 -1.00 -1.00  1.00  1.00  1.00 -1.00 -1.00
E_g    2.00 -1.00  2.00  0.00  0.00  2.00 -1.00  2.00  0.00  0.00
T_1g   3.00  0.00 -1.00  1.00 -1.00  3.00  0.00 -1.00  1.00 -1.00
T_2g   3.00  0.00 -1.00 -1.00  1.00  3.00  0.00 -1.00 -1.00  1.00
A_1u   1.00  1.00  1.00  1.00  1.00 -1.00 -1.00 -1.00 -1.00 -1.00
A_2u   1.00  1.00  1.00 -1.00 -1.00 -1.00 -1.00 -1.00  1.00  1.00
E_u    2.00 -1.00  2.00  0.00  0.00 -2.00  1.00 -2.00  0.00  0.00
T_1u   3.00  0.00 -1.00  1.00 -1.00 -3.00  0.00  1.00 -1.00  1.00
T_2u   3.00  0.00 -1.00 -1.00  1.00 -3.00  0.00  1.00  1.00 -1.00

     the symmetry operations in each class and the name of the first element:

     E        1
          identity                                               
     8C3     17   19   20   18   24   21   22   23
          120 deg rotation - cart. axis [-1,-1,-1]               
     3C2      2    4    3
          180 deg rotation - cart. axis [0,0,1]                  
     6C4      7    8   15   16   12   11
           90 deg rotation - cart. axis [0,0,-1]                 
     6C2'     5    6   14   13   10    9
          180 deg rotation - cart. axis [1,1,0]                  
     i       25
          inversion                                              
     8S6     41   43   44   42   48   45   46   47
          inv. 120 deg rotation - cart. axis [-1,-1,-1]          
     3s_h    26   28   27
          inv. 180 deg rotation - cart. axis [0,0,1]             
     6S4     31   32   39   40   36   35
          inv.  90 deg rotation - cart. axis [0,0,-1]            
     6s_d    29   30   38   37   34   33
          inv. 180 deg rotation - cart. axis [1,1,0]             

   Cartesian axes

     site n.     atom                  positions (alat units)
         1        Li     tau(   1) = (   0.0000000   0.0000000   0.0000000  )

   Crystallographic axes

     site n.     atom                  positions (cryst. coord.)
         1        Li     tau(   1) = (  0.0000000  0.0000000  0.0000000  )

     number of k points=    72  Marzari-Vanderbilt smearing, width (Ry)=  0.0100
                       cart. coord. in units 2pi/alat
        k(    1) = (   0.0000000   0.0000000   0.0000000), wk =   0.0011574
        k(    2) = (   0.0000000  -0.0833333   0.0833333), wk =   0.0138889
        k(    3) = (   0.0000000  -0.1666667   0.1666667), wk =   0.0138889
        k(    4) = (   0.0000000  -0.2500000   0.2500000), wk =   0.0138889
        k(    5) = (   0.0000000  -0.3333333   0.3333333), wk =   0.0138889
        k(    6) = (   0.0000000  -0.4166667   0.4166667), wk =   0.0138889
        k(    7) = (   0.0000000   0.5000000  -0.5000000), wk =   0.0069444
        k(    8) = (  -0.0833333  -0.0833333   0.1666667), wk =   0.0277778
        k(    9) = (  -0.0833333  -0.1666667   0.2500000), wk =   0.0555556
        k(   10) = (  -0.0833333  -0.2500000   0.3333333), wk =   0.0555556
        k(   11) = (  -0.0833333  -0.3333333   0.4166667), wk =   0.0555556
        k(   12) = (  -0.0833333   0.5833333  -0.5000000), wk =   0.0555556
        k(   13) = (  -0.1666667  -0.1666667   0.3333333), wk =   0.0277778
        k(   14) = (  -0.1666667  -0.2500000   0.4166667), wk =   0.0555556
        k(   15) = (  -0.1666667   0.6666667  -0.5000000), wk =   0.0555556
        k(   16) = (  -0.1666667   0.5833333  -0.4166667), wk =   0.0277778
        k(   17) = (  -0.2500000   0.7500000  -0.5000000), wk =   0.0277778
        k(   18) = (  -0.2500000   0.6666667  -0.4166667), wk =   0.0555556
        k(   19) = (  -0.3333333   0.6666667  -0.3333333), wk =   0.0092593
        k(   20) = (   0.0000000   0.0000000   0.1666667), wk =   0.0069444
        k(   21) = (   0.0000000  -0.0833333   0.2500000), wk =   0.0277778
        k(   22) = (   0.0000000  -0.1666667   0.3333333), wk =   0.0277778
        k(   23) = (   0.0000000  -0.2500000   0.4166667), wk =   0.0277778
        k(   24) = (   0.0000000  -0.3333333   0.5000000), wk =   0.0277778
        k(   25) = (   0.0000000   0.5833333  -0.4166667), wk =   0.0138889
        k(   26) = (  -0.0833333  -0.0833333   0.3333333), wk =   0.0277778
        k(   27) = (  -0.0833333  -0.1666667   0.4166667), wk =   0.0555556
        k(   28) = (  -0.0833333  -0.2500000   0.5000000), wk =   0.0555556
        k(   29) = (  -0.0833333   0.6666667  -0.4166667), wk =   0.0555556
        k(   30) = (  -0.1666667   0.1666667   0.1666667), wk =   0.0092593
        k(   31) = (  -0.1666667  -0.1666667   0.5000000), wk =   0.0277778
        k(   32) = (  -0.1666667   0.7500000  -0.4166667), wk =   0.0555556
        k(   33) = (  -0.1666667   0.6666667  -0.3333333), wk =   0.0277778
        k(   34) = (  -0.2500000   0.2500000   0.1666667), wk =   0.0277778
        k(   35) = (  -0.2500000   0.7500000  -0.3333333), wk =   0.0277778
        k(   36) = (  -0.3333333   0.3333333   0.1666667), wk =   0.0277778
        k(   37) = (  -0.3333333   0.2500000   0.2500000), wk =   0.0277778
        k(   38) = (   0.5833333  -0.5833333   0.1666667), wk =   0.0277778
        k(   39) = (   0.5833333  -0.6666667   0.2500000), wk =   0.0555556
        k(   40) = (   0.5000000  -0.5000000   0.1666667), wk =   0.0138889
        k(   41) = (   0.5000000  -0.5833333   0.2500000), wk =   0.0555556
        k(   42) = (   0.5000000  -0.6666667   0.3333333), wk =   0.0277778
        k(   43) = (   0.4166667  -0.5833333   0.3333333), wk =   0.0277778
        k(   44) = (   0.0000000   0.0000000   0.3333333), wk =   0.0069444
        k(   45) = (   0.0000000  -0.0833333   0.4166667), wk =   0.0277778
        k(   46) = (   0.0000000  -0.1666667   0.5000000), wk =   0.0277778
        k(   47) = (   0.0000000  -0.2500000   0.5833333), wk =   0.0277778
        k(   48) = (   0.0000000   0.6666667  -0.3333333), wk =   0.0138889
        k(   49) = (  -0.0833333  -0.0833333   0.5000000), wk =   0.0277778
        k(   50) = (  -0.0833333  -0.1666667   0.5833333), wk =   0.0555556
        k(   51) = (  -0.0833333   0.7500000  -0.3333333), wk =   0.0555556
        k(   52) = (  -0.1666667   0.8333333  -0.3333333), wk =   0.0277778
        k(   53) = (  -0.1666667   0.7500000  -0.2500000), wk =   0.0277778
        k(   54) = (   0.6666667  -0.6666667   0.3333333), wk =   0.0092593
        k(   55) = (   0.5833333  -0.5833333   0.3333333), wk =   0.0277778
        k(   56) = (   0.5000000  -0.5000000   0.3333333), wk =   0.0138889
        k(   57) = (   0.5000000  -0.5833333   0.4166667), wk =   0.0277778
        k(   58) = (   0.0000000   0.0000000   0.5000000), wk =   0.0069444
        k(   59) = (   0.0000000  -0.0833333   0.5833333), wk =   0.0277778
        k(   60) = (   0.0000000  -0.1666667   0.6666667), wk =   0.0277778
        k(   61) = (   0.0000000   0.7500000  -0.2500000), wk =   0.0138889
        k(   62) = (  -0.0833333  -0.0833333   0.6666667), wk =   0.0277778
        k(   63) = (  -0.0833333   0.8333333  -0.2500000), wk =   0.0555556
        k(   64) = (  -0.1666667   0.8333333  -0.1666667), wk =   0.0092593
        k(   65) = (   0.5000000  -0.5000000   0.5000000), wk =   0.0023148
        k(   66) = (   0.0000000   0.0000000   0.6666667), wk =   0.0069444
        k(   67) = (   0.0000000  -0.0833333   0.7500000), wk =   0.0277778
        k(   68) = (   0.0000000   0.8333333  -0.1666667), wk =   0.0138889
        k(   69) = (  -0.0833333   0.9166667  -0.1666667), wk =   0.0277778
        k(   70) = (   0.0000000   0.0000000   0.8333333), wk =   0.0069444
        k(   71) = (   0.0000000   0.9166667  -0.0833333), wk =   0.0138889
        k(   72) = (   0.0000000   0.0000000  -1.0000000), wk =   0.0011574

                       cryst. coord.
        k(    1) = (   0.0000000   0.0000000   0.0000000), wk =   0.0011574
        k(    2) = (   0.0000000   0.0000000   0.0833333), wk =   0.0138889
        k(    3) = (   0.0000000   0.0000000   0.1666667), wk =   0.0138889
        k(    4) = (   0.0000000   0.0000000   0.2500000), wk =   0.0138889
        k(    5) = (   0.0000000   0.0000000   0.3333333), wk =   0.0138889
        k(    6) = (   0.0000000   0.0000000   0.4166667), wk =   0.0138889
        k(    7) = (   0.0000000   0.0000000  -0.5000000), wk =   0.0069444
        k(    8) = (   0.0000000   0.0833333   0.1666667), wk =   0.0277778
        k(    9) = (   0.0000000   0.0833333   0.2500000), wk =   0.0555556
        k(   10) = (   0.0000000   0.0833333   0.3333333), wk =   0.0555556
        k(   11) = (   0.0000000   0.0833333   0.4166667), wk =   0.0555556
        k(   12) = (   0.0000000   0.0833333  -0.5000000), wk =   0.0555556
        k(   13) = (   0.0000000   0.1666667   0.3333333), wk =   0.0277778
        k(   14) = (   0.0000000   0.1666667   0.4166667), wk =   0.0555556
        k(   15) = (   0.0000000   0.1666667  -0.5000000), wk =   0.0555556
        k(   16) = (   0.0000000   0.1666667  -0.4166667), wk =   0.0277778
        k(   17) = (   0.0000000   0.2500000  -0.5000000), wk =   0.0277778
        k(   18) = (   0.0000000   0.2500000  -0.4166667), wk =   0.0555556
        k(   19) = (   0.0000000   0.3333333  -0.3333333), wk =   0.0092593
        k(   20) = (   0.0833333   0.0833333   0.0833333), wk =   0.0069444
        k(   21) = (   0.0833333   0.0833333   0.1666667), wk =   0.0277778
        k(   22) = (   0.0833333   0.0833333   0.2500000), wk =   0.0277778
        k(   23) = (   0.0833333   0.0833333   0.3333333), wk =   0.0277778
        k(   24) = (   0.0833333   0.0833333   0.4166667), wk =   0.0277778
        k(   25) = (   0.0833333   0.0833333  -0.5000000), wk =   0.0138889
        k(   26) = (   0.0833333   0.1666667   0.2500000), wk =   0.0277778
        k(   27) = (   0.0833333   0.1666667   0.3333333), wk =   0.0555556
        k(   28) = (   0.0833333   0.1666667   0.4166667), wk =   0.0555556
        k(   29) = (   0.0833333   0.1666667  -0.5000000), wk =   0.0555556
        k(   30) = (   0.0833333   0.2500000   0.0833333), wk =   0.0092593
        k(   31) = (   0.0833333   0.2500000   0.4166667), wk =   0.0277778
        k(   32) = (   0.0833333   0.2500000  -0.5000000), wk =   0.0555556
        k(   33) = (   0.0833333   0.2500000  -0.4166667), wk =   0.0277778
        k(   34) = (   0.0833333   0.3333333   0.0833333), wk =   0.0277778
        k(   35) = (   0.0833333   0.3333333  -0.4166667), wk =   0.0277778
        k(   36) = (   0.0833333   0.4166667   0.0833333), wk =   0.0277778
        k(   37) = (   0.0833333   0.4166667   0.1666667), wk =   0.0277778
        k(   38) = (   0.0833333  -0.5000000   0.0833333), wk =   0.0277778
        k(   39) = (   0.0833333  -0.5000000   0.1666667), wk =   0.0555556
        k(   40) = (   0.0833333  -0.4166667   0.0833333), wk =   0.0138889
        k(   41) = (   0.0833333  -0.4166667   0.1666667), wk =   0.0555556
        k(   42) = (   0.0833333  -0.4166667   0.2500000), wk =   0.0277778
        k(   43) = (   0.0833333  -0.3333333   0.2500000), wk =   0.0277778
        k(   44) = (   0.1666667   0.1666667   0.1666667), wk =   0.0069444
        k(   45) = (   0.1666667   0.1666667   0.2500000), wk =   0.0277778
        k(   46) = (   0.1666667   0.1666667   0.3333333), wk =   0.0277778
        k(   47) = (   0.1666667   0.1666667   0.4166667), wk =   0.0277778
        k(   48) = (   0.1666667   0.1666667  -0.5000000), wk =   0.0138889
        k(   49) = (   0.1666667   0.2500000   0.3333333), wk =   0.0277778
        k(   50) = (   0.1666667   0.2500000   0.4166667), wk =   0.0555556
        k(   51) = (   0.1666667   0.2500000  -0.5000000), wk =   0.0555556
        k(   52) = (   0.1666667   0.3333333  -0.5000000), wk =   0.0277778
        k(   53) = (   0.1666667   0.3333333  -0.4166667), wk =   0.0277778
        k(   54) = (   0.1666667  -0.5000000   0.1666667), wk =   0.0092593
        k(   55) = (   0.1666667  -0.4166667   0.1666667), wk =   0.0277778
        k(   56) = (   0.1666667  -0.3333333   0.1666667), wk =   0.0138889
        k(   57) = (   0.1666667  -0.3333333   0.2500000), wk =   0.0277778
        k(   58) = (   0.2500000   0.2500000   0.2500000), wk =   0.0069444
        k(   59) = (   0.2500000   0.2500000   0.3333333), wk =   0.0277778
        k(   60) = (   0.2500000   0.2500000   0.4166667), wk =   0.0277778
        k(   61) = (   0.2500000   0.2500000  -0.5000000), wk =   0.0138889
        k(   62) = (   0.2500000   0.3333333   0.4166667), wk =   0.0277778
        k(   63) = (   0.2500000   0.3333333  -0.5000000), wk =   0.0555556
        k(   64) = (   0.2500000   0.4166667  -0.4166667), wk =   0.0092593
        k(   65) = (   0.2500000  -0.2500000   0.2500000), wk =   0.0023148
        k(   66) = (   0.3333333   0.3333333   0.3333333), wk =   0.0069444
        k(   67) = (   0.3333333   0.3333333   0.4166667), wk =   0.0277778
        k(   68) = (   0.3333333   0.3333333  -0.5000000), wk =   0.0138889
        k(   69) = (   0.3333333   0.4166667  -0.5000000), wk =   0.0277778
        k(   70) = (   0.4166667   0.4166667   0.4166667), wk =   0.0069444
        k(   71) = (   0.4166667   0.4166667  -0.5000000), wk =   0.0138889
        k(   72) = (  -0.5000000  -0.5000000  -0.5000000), wk =   0.0011574

     Dense  grid:    30501 G-vectors     FFT dimensions: (  45,  45,  45)

     Smooth grid:    11393 G-vectors     FFT dimensions: (  32,  32,  32)

     Dynamical RAM for                 wfc:       0.03 MB

     Dynamical RAM for     wfc (w. buffer):       2.37 MB

     Dynamical RAM for           str. fact:       0.12 MB

     Dynamical RAM for           local pot:       0.00 MB

     Dynamical RAM for          nlocal pot:       0.05 MB

     Dynamical RAM for                qrad:       1.60 MB

     Dynamical RAM for          rho,v,vnew:       0.91 MB

     Dynamical RAM for               rhoin:       0.30 MB

     Dynamical RAM for            rho*nmix:       1.86 MB

     Dynamical RAM for           G-vectors:       0.46 MB

     Dynamical RAM for          h,s,v(r/c):       0.01 MB

     Dynamical RAM for          <psi|beta>:       0.00 MB

     Dynamical RAM for                 psi:       0.07 MB

     Dynamical RAM for                hpsi:       0.07 MB

     Dynamical RAM for                spsi:       0.07 MB

     Dynamical RAM for      wfcinit/wfcrot:       0.07 MB

     Dynamical RAM for           addusdens:       6.17 MB

     Dynamical RAM for          addusforce:       6.23 MB

     Dynamical RAM for         addusstress:       6.86 MB

     Estimated static dynamical RAM per process >       6.96 MB

     Estimated max dynamical RAM per process >      15.69 MB

     Estimated total dynamical RAM >      62.75 MB

     Initial potential from superposition of free atoms

     starting charge       2.5493, renormalised to       3.0000
     Starting wfcs are    5 randomized atomic wfcs +    1 random wfcs

     total cpu time spent up to now is        0.1 secs

     Self-consistent Calculation

     iteration #  1     ecut=    70.00 Ry     beta= 0.30
     Davidson diagonalization with overlap

---- Real-time Memory Report at c_bands before calling an iterative solver
             0 MiB given to the printing process from OS
             0 MiB allocation reported by mallinfo(arena+hblkhd)
             0 MiB available memory on the node where the printing process lives
------------------
     ethr =  1.00E-02,  avg # of iterations =  6.5

     total cpu time spent up to now is        0.3 secs

     total energy              =     -14.51987281 Ry
     estimated scf accuracy    <       0.16271475 Ry

     iteration #  2     ecut=    70.00 Ry     beta= 0.30
     Davidson diagonalization with overlap

---- Real-time Memory Report at c_bands before calling an iterative solver
             0 MiB given to the printing process from OS
             0 MiB allocation reported by mallinfo(arena+hblkhd)
             0 MiB available memory on the node where the printing process lives
------------------
     ethr =  5.42E-03,  avg # of iterations =  1.0

     total cpu time spent up to now is        0.4 secs

     total energy              =     -14.46458990 Ry
     estimated scf accuracy    <       0.07252375 Ry

     iteration #  3     ecut=    70.00 Ry     beta= 0.30
     Davidson diagonalization with overlap

---- Real-time Memory Report at c_bands before calling an iterative solver
             0 MiB given to the printing process from OS
             0 MiB allocation reported by mallinfo(arena+hblkhd)
             0 MiB available memory on the node where the printing process lives
------------------
     ethr =  2.42E-03,  avg # of iterations =  1.2

     total cpu time spent up to now is        0.5 secs

     total energy              =     -14.47100281 Ry
     estimated scf accuracy    <       0.00021140 Ry

     iteration #  4     ecut=    70.00 Ry     beta= 0.30
     Davidson diagonalization with overlap

---- Real-time Memory Report at c_bands before calling an iterative solver
             0 MiB given to the printing process from OS
             0 MiB allocation reported by mallinfo(arena+hblkhd)
             0 MiB available memory on the node where the printing process lives
------------------
     c_bands:  1 eigenvalues not converged
     c_bands:  1 eigenvalues not converged
     ethr =  7.05E-06,  avg # of iterations =  8.4

     total cpu time spent up to now is        0.8 secs

     total energy              =     -14.47160490 Ry
     estimated scf accuracy    <       0.00004395 Ry

     iteration #  5     ecut=    70.00 Ry     beta= 0.30
     Davidson diagonalization with overlap

---- Real-time Memory Report at c_bands before calling an iterative solver
             0 MiB given to the printing process from OS
             0 MiB allocation reported by mallinfo(arena+hblkhd)
             0 MiB available memory on the node where the printing process lives
------------------
     ethr =  1.47E-06,  avg # of iterations =  2.7

     total cpu time spent up to now is        0.9 secs

     total energy              =     -14.47161314 Ry
     estimated scf accuracy    <       0.00000048 Ry

     iteration #  6     ecut=    70.00 Ry     beta= 0.30
     Davidson diagonalization with overlap

---- Real-time Memory Report at c_bands before calling an iterative solver
             0 MiB given to the printing process from OS
             0 MiB allocation reported by mallinfo(arena+hblkhd)
             0 MiB available memory on the node where the printing process lives
------------------
     ethr =  1.59E-08,  avg # of iterations =  3.4

     total cpu time spent up to now is        1.0 secs

     total energy              =     -14.47161335 Ry
     estimated scf accuracy    <       0.00000109 Ry

     iteration #  7     ecut=    70.00 Ry     beta= 0.30
     Davidson diagonalization with overlap

---- Real-time Memory Report at c_bands before calling an iterative solver
             0 MiB given to the printing process from OS
             0 MiB allocation reported by mallinfo(arena+hblkhd)
             0 MiB available memory on the node where the printing process lives
------------------
     ethr =  1.59E-08,  avg # of iterations =  2.0

     total cpu time spent up to now is        1.2 secs

     total energy              =     -14.47161345 Ry
     estimated scf accuracy    <       0.00000014 Ry

     iteration #  8     ecut=    70.00 Ry     beta= 0.30
     Davidson diagonalization with overlap

---- Real-time Memory Report at c_bands before calling an iterative solver
             0 MiB given to the printing process from OS
             0 MiB allocation reported by mallinfo(arena+hblkhd)
             0 MiB available memory on the node where the printing process lives
------------------
     ethr =  4.58E-09,  avg # of iterations =  1.0

     total cpu time spent up to now is        1.3 secs

     total energy              =     -14.47161344 Ry
     estimated scf accuracy    <       0.00000003 Ry

     iteration #  9     ecut=    70.00 Ry     beta= 0.30
     Davidson diagonalization with overlap

---- Real-time Memory Report at c_bands before calling an iterative solver
             0 MiB given to the printing process from OS
             0 MiB allocation reported by mallinfo(arena+hblkhd)
             0 MiB available memory on the node where the printing process lives
------------------
     ethr =  1.13E-09,  avg # of iterations =  2.0

     total cpu time spent up to now is        1.4 secs

     total energy              =     -14.47161344 Ry
     estimated scf accuracy    <       0.00000001 Ry

     iteration # 10     ecut=    70.00 Ry     beta= 0.30
     Davidson diagonalization with overlap

---- Real-time Memory Report at c_bands before calling an iterative solver
             0 MiB given to the printing process from OS
             0 MiB allocation reported by mallinfo(arena+hblkhd)
             0 MiB available memory on the node where the printing process lives
------------------
     ethr =  4.34E-10,  avg # of iterations =  1.1

     total cpu time spent up to now is        1.5 secs

     End of self-consistent calculation

          k = 0.0000 0.0000 0.0000 (  1433 PWs)   bands (ev):

   -45.8096  -2.7169  14.8876  14.8876  14.8876  19.5690

     occupation numbers 
     1.0000   1.0000   0.0000   0.0000   0.0000   0.0000

          k = 0.0000-0.0833 0.0833 (  1443 PWs)   bands (ev):

   -45.8085  -2.5876  14.0257  14.2928  14.6703  18.0157

     occupation numbers 
     1.0000   1.0000   0.0000   0.0000   0.0000   0.0000

          k = 0.0000-0.1667 0.1667 (  1431 PWs)   bands (ev):

   -45.8056  -2.1995  11.7638  13.1993  14.0916  16.7259

     occupation numbers 
     1.0000   1.0000   0.0000   0.0000   0.0000   0.0000

          k = 0.0000-0.2500 0.2500 (  1428 PWs)   bands (ev):

   -45.8016  -1.5540   9.1871  12.1908  13.3846  15.5423

     occupation numbers 
     1.0000   1.0000   0.0000   0.0000   0.0000   0.0000

          k = 0.0000-0.3333 0.3333 (  1422 PWs)   bands (ev):

   -45.7977  -0.6659   6.8111  11.4287  12.7738  14.6929

     occupation numbers 
     1.0000   1.0000   0.0000   0.0000   0.0000   0.0000

          k = 0.0000-0.4167 0.4167 (  1424 PWs)   bands (ev):

   -45.7948   0.3797   4.8477  10.9607  12.3762  14.1824

     occupation numbers 
     1.0000   1.0014   0.0000   0.0000   0.0000   0.0000

          k = 0.0000 0.5000-0.5000 (  1416 PWs)   bands (ev):

   -45.7937   1.0466   3.8718  10.8033  12.2394  14.0121

     occupation numbers 
     1.0000   0.0006   0.0000   0.0000   0.0000   0.0000

          k =-0.0833-0.0833 0.1667 (  1443 PWs)   bands (ev):

   -45.8065  -2.3288  12.9704  12.9764  13.9939  17.2749

     occupation numbers 
     1.0000   1.0000   0.0000   0.0000   0.0000   0.0000

          k =-0.0833-0.1667 0.2500 (  1422 PWs)   bands (ev):

   -45.8031  -1.8108  10.4984  11.9205  13.1328  16.9291

     occupation numbers 
     1.0000   1.0000   0.0000   0.0000   0.0000   0.0000

          k =-0.0833-0.2500 0.3333 (  1428 PWs)   bands (ev):

   -45.7991  -1.0385   8.0029  11.0654  12.3516  16.2801

     occupation numbers 
     1.0000   1.0000   0.0000   0.0000   0.0000   0.0000

          k =-0.0833-0.3333 0.4167 (  1420 PWs)   bands (ev):

   -45.7957  -0.0451   5.8052  10.4748  11.7859  15.7500

     occupation numbers 
     1.0000   1.0000   0.0000   0.0000   0.0000   0.0000

          k =-0.0833 0.5833-0.5000 (  1416 PWs)   bands (ev):

   -45.7937   0.9612   4.1858  10.1745  11.4931  15.4677

     occupation numbers 
     1.0000   0.0113   0.0000   0.0000   0.0000   0.0000

          k =-0.1667-0.1667 0.3333 (  1423 PWs)   bands (ev):

   -45.7996  -1.1626   8.9987  10.0572  12.3150  17.0337

     occupation numbers 
     1.0000   1.0000   0.0000   0.0000   0.0000   0.0000

          k =-0.1667-0.2500 0.4167 (  1413 PWs)   bands (ev):

   -45.7962  -0.2645   6.8929   9.1079  11.7047  17.1267

     occupation numbers 
     1.0000   1.0000   0.0000   0.0000   0.0000   0.0000

          k =-0.1667 0.6667-0.5000 (  1420 PWs)   bands (ev):

   -45.7937   0.8163   4.9600   8.6231  11.3188  17.0584

     occupation numbers 
     1.0000   0.2811   0.0000   0.0000   0.0000   0.0000

          k =-0.1667 0.5833-0.4167 (  1420 PWs)   bands (ev):

   -45.7928   1.5518   3.9310   8.4657  11.1871  17.0079

     occupation numbers 
     1.0000   0.0000   0.0000   0.0000   0.0000   0.0000

          k =-0.2500 0.7500-0.5000 (  1417 PWs)   bands (ev):

   -45.7937   0.7532   5.5667   7.7147  11.3019  17.7367

     occupation numbers 
     1.0000   0.6009   0.0000   0.0000   0.0000   0.0000

          k =-0.2500 0.6667-0.4167 (  1427 PWs)   bands (ev):

   -45.7923   1.8869   4.1197   7.1531  11.0941  18.1096

     occupation numbers 
     1.0000   0.0000   0.0000   0.0000   0.0000   0.0000

          k =-0.3333 0.6667-0.3333 (  1421 PWs)   bands (ev):

   -45.7917   3.0639   3.0639   6.6080  11.0198  19.7098

     occupation numbers 
     1.0000   0.0000   0.0000   0.0000   0.0000   0.0000

          k = 0.0000 0.0000 0.1667 (  1441 PWs)   bands (ev):

   -45.8075  -2.4579  13.6176  13.6176  14.3514  16.9031

     occupation numbers 
     1.0000   1.0000   0.0000   0.0000   0.0000   0.0000

          k = 0.0000-0.0833 0.2500 (  1432 PWs)   bands (ev):

   -45.8046  -2.0682  11.7299  12.4482  13.9140  15.8112

     occupation numbers 
     1.0000   1.0000   0.0000   0.0000   0.0000   0.0000

          k = 0.0000-0.1667 0.3333 (  1419 PWs)   bands (ev):

   -45.8007  -1.4200   9.2415  11.4014  13.3016  15.7558

     occupation numbers 
     1.0000   1.0000   0.0000   0.0000   0.0000   0.0000

          k = 0.0000-0.2500 0.4167 (  1417 PWs)   bands (ev):

   -45.7968  -0.5269   6.8882  10.6195  12.7250  15.8333

     occupation numbers 
     1.0000   1.0000   0.0000   0.0000   0.0000   0.0000

          k = 0.0000-0.3333 0.5000 (  1418 PWs)   bands (ev):

   -45.7940   0.5299   4.9244  10.1418  12.3438  15.3352

     occupation numbers 
     1.0000   1.0489   0.0000   0.0000   0.0000   0.0000

          k = 0.0000 0.5833-0.4167 (  1422 PWs)   bands (ev):

   -45.7930   1.2140   3.9342   9.9814  12.2123  15.1686

     occupation numbers 
     1.0000   0.0000   0.0000   0.0000   0.0000   0.0000

          k =-0.0833-0.0833 0.3333 (  1422 PWs)   bands (ev):

   -45.8013  -1.5467  10.3161  10.8319  13.5240  14.9960

     occupation numbers 
     1.0000   1.0000   0.0000   0.0000   0.0000   0.0000

          k =-0.0833-0.1667 0.4167 (  1420 PWs)   bands (ev):

   -45.7975  -0.7680   8.0847   9.8220  13.0080  15.0704

     occupation numbers 
     1.0000   1.0000   0.0000   0.0000   0.0000   0.0000

          k =-0.0833-0.2500 0.5000 (  1423 PWs)   bands (ev):

   -45.7942   0.2389   5.9380   9.2025  12.5248  15.5087

     occupation numbers 
     1.0000   1.0000   0.0000   0.0000   0.0000   0.0000

          k =-0.0833 0.6667-0.4167 (  1422 PWs)   bands (ev):

   -45.7923   1.2799   4.3054   8.8928  12.2590  15.7818

     occupation numbers 
     1.0000   0.0000   0.0000   0.0000   0.0000   0.0000

          k =-0.1667 0.1667 0.1667 (  1427 PWs)   bands (ev):

   -45.8039  -1.9409  11.8307  11.8307  12.0853  17.7053

     occupation numbers 
     1.0000   1.0000   0.0000   0.0000   0.0000   0.0000

          k =-0.1667-0.1667 0.5000 (  1428 PWs)   bands (ev):

   -45.7943   0.1382   6.6978   8.3434  12.7822  15.0635

     occupation numbers 
     1.0000   1.0000   0.0000   0.0000   0.0000   0.0000

          k =-0.1667 0.7500-0.4167 (  1423 PWs)   bands (ev):

   -45.7920   1.2461   5.0109   7.6590  12.5270  15.5672

     occupation numbers 
     1.0000   0.0000   0.0000   0.0000   0.0000   0.0000

          k =-0.1667 0.6667-0.3333 (  1421 PWs)   bands (ev):

   -45.7911   2.0527   3.9675   7.4654  12.4215  15.9117

     occupation numbers 
     1.0000   0.0000   0.0000   0.0000   0.0000   0.0000

          k =-0.2500 0.2500 0.1667 (  1419 PWs)   bands (ev):

   -45.8004  -1.2941   9.2908  10.7997  11.2560  17.8789

     occupation numbers 
     1.0000   1.0000   0.0000   0.0000   0.0000   0.0000

          k =-0.2500 0.7500-0.3333 (  1424 PWs)   bands (ev):

   -45.7907   2.4288   3.8915   6.8021  12.5080  16.2484

     occupation numbers 
     1.0000   0.0000   0.0000   0.0000   0.0000   0.0000

          k =-0.3333 0.3333 0.1667 (  1414 PWs)   bands (ev):

   -45.7969  -0.3993   6.9202  10.0256  10.6487  17.7020

     occupation numbers 
     1.0000   1.0000   0.0000   0.0000   0.0000   0.0000

          k =-0.3333 0.2500 0.2500 (  1417 PWs)   bands (ev):

   -45.7974  -0.5185   7.8909   8.9258  10.5471  18.7813

     occupation numbers 
     1.0000   1.0000   0.0000   0.0000   0.0000   0.0000

          k = 0.5833-0.5833 0.1667 (  1420 PWs)   bands (ev):

   -45.7943   0.6712   4.9391   9.5515  10.2743  17.4444

     occupation numbers 
     1.0000   0.9826   0.0000   0.0000   0.0000   0.0000

          k = 0.5833-0.6667 0.2500 (  1430 PWs)   bands (ev):

   -45.7947   0.4968   5.9320   8.0819  10.1032  19.1435

     occupation numbers 
     1.0000   1.0285   0.0000   0.0000   0.0000   0.0000

          k = 0.5000-0.5000 0.1667 (  1434 PWs)   bands (ev):

   -45.7934   1.3845   3.9190   9.3922  10.1480  17.3387

     occupation numbers 
     1.0000   0.0000   0.0000   0.0000   0.0000   0.0000

          k = 0.5000-0.5833 0.2500 (  1424 PWs)   bands (ev):

   -45.7932   1.5900   4.2777   7.7310   9.8803  19.1739

     occupation numbers 
     1.0000   0.0000   0.0000   0.0000   0.0000   0.0000

          k = 0.5000-0.6667 0.3333 (  1426 PWs)   bands (ev):

   -45.7931   1.6222   4.7442   6.8323   9.8101  20.2042

     occupation numbers 
     1.0000   0.0000   0.0000   0.0000   0.0000   0.0000

          k = 0.4167-0.5833 0.3333 (  1425 PWs)   bands (ev):

   -45.7925   2.5643   3.7096   6.4802   9.7133  20.4736

     occupation numbers 
     1.0000   0.0000   0.0000   0.0000   0.0000   0.0000

          k = 0.0000 0.0000 0.3333 (  1429 PWs)   bands (ev):

   -45.8019  -1.6741  11.2173  11.2173  13.5239  13.8247

     occupation numbers 
     1.0000   1.0000   0.0000   0.0000   0.0000   0.0000

          k = 0.0000-0.0833 0.4167 (  1424 PWs)   bands (ev):

   -45.7983  -1.0179   9.3523  10.1419  12.9530  13.5480

     occupation numbers 
     1.0000   1.0000   0.0000   0.0000   0.0000   0.0000

          k = 0.0000-0.1667 0.5000 (  1418 PWs)   bands (ev):

   -45.7946  -0.1107   7.1192   9.3458  12.4591  14.1587

     occupation numbers 
     1.0000   1.0000   0.0000   0.0000   0.0000   0.0000

          k = 0.0000-0.2500 0.5833 (  1424 PWs)   bands (ev):

   -45.7919   0.9779   5.1654   8.8611  12.1443  15.0652

     occupation numbers 
     1.0000   0.0068   0.0000   0.0000   0.0000   0.0000

          k = 0.0000 0.6667-0.3333 (  1422 PWs)   bands (ev):

   -45.7910   1.7152   4.1329   8.6987  12.0357  15.6916

     occupation numbers 
     1.0000   0.0000   0.0000   0.0000   0.0000   0.0000

          k =-0.0833-0.0833 0.5000 (  1420 PWs)   bands (ev):

   -45.7948  -0.2274   8.0660   8.8375  12.7391  13.1359

     occupation numbers 
     1.0000   1.0000   0.0000   0.0000   0.0000   0.0000

          k =-0.0833-0.1667 0.5833 (  1423 PWs)   bands (ev):

   -45.7917   0.8030   6.1917   8.0910  12.5353  13.6689

     occupation numbers 
     1.0000   0.3399   0.0000   0.0000   0.0000   0.0000

          k =-0.0833 0.7500-0.3333 (  1422 PWs)   bands (ev):

   -45.7900   1.9107   4.5622   7.7618  12.3420  14.6554

     occupation numbers 
     1.0000   0.0000   0.0000   0.0000   0.0000   0.0000

          k =-0.1667 0.8333-0.3333 (  1422 PWs)   bands (ev):

   -45.7896   1.9395   5.0321   7.0618  13.2579  13.4594

     occupation numbers 
     1.0000   0.0000   0.0000   0.0000   0.0000   0.0000

          k =-0.1667 0.7500-0.2500 (  1417 PWs)   bands (ev):

   -45.7888   2.8825   4.0143   6.7565  13.1949  14.3494

     occupation numbers 
     1.0000   0.0000   0.0000   0.0000   0.0000   0.0000

          k = 0.6667-0.6667 0.3333 (  1418 PWs)   bands (ev):

   -45.7951   0.3853   7.0805   7.0805   9.6581  20.2178

     occupation numbers 
     1.0000   1.0016   0.0000   0.0000   0.0000   0.0000

          k = 0.5833-0.5833 0.3333 (  1426 PWs)   bands (ev):

   -45.7934   1.5143   5.1804   6.5895   9.2870  20.9644

     occupation numbers 
     1.0000   0.0000   0.0000   0.0000   0.0000   0.0000

          k = 0.5000-0.5000 0.3333 (  1430 PWs)   bands (ev):

   -45.7928   2.3973   4.0231   6.4251   9.1755  21.1884

     occupation numbers 
     1.0000   0.0000   0.0000   0.0000   0.0000   0.0000

          k = 0.5000-0.5833 0.4167 (  1425 PWs)   bands (ev):

   -45.7927   2.7414   4.2472   5.5368   8.9985  22.0436

     occupation numbers 
     1.0000   0.0000   0.0000   0.0000   0.0000   0.0000

          k = 0.0000 0.0000 0.5000 (  1413 PWs)   bands (ev):

   -45.7949  -0.3485   9.0535   9.0535  11.4294  12.9986

     occupation numbers 
     1.0000   1.0000   0.0000   0.0000   0.0000   0.0000

          k = 0.0000-0.0833 0.5833 (  1421 PWs)   bands (ev):

   -45.7916   0.5801   7.4572   8.2507  11.1737  12.9894

     occupation numbers 
     1.0000   1.0796   0.0000   0.0000   0.0000   0.0000

          k = 0.0000-0.1667 0.6667 (  1414 PWs)   bands (ev):

   -45.7891   1.7153   5.5912   7.7629  11.3648  13.5339

     occupation numbers 
     1.0000   0.0000   0.0000   0.0000   0.0000   0.0000

          k = 0.0000 0.7500-0.2500 (  1420 PWs)   bands (ev):

   -45.7882   2.5457   4.4940   7.5995  11.4225  14.5637

     occupation numbers 
     1.0000   0.0000   0.0000   0.0000   0.0000   0.0000

          k =-0.0833-0.0833 0.6667 (  1415 PWs)   bands (ev):

   -45.7888   1.6384   6.4205   7.3244  11.0752  12.9278

     occupation numbers 
     1.0000   0.0000   0.0000   0.0000   0.0000   0.0000

          k =-0.0833 0.8333-0.2500 (  1409 PWs)   bands (ev):

   -45.7872   2.8339   4.9643   6.9003  11.4915  13.2898

     occupation numbers 
     1.0000   0.0000   0.0000   0.0000   0.0000   0.0000

          k =-0.1667 0.8333-0.1667 (  1412 PWs)   bands (ev):

   -45.7865   4.0273   4.0273   6.4186  12.4718  12.4718

     occupation numbers 
     1.0000   0.0000   0.0000   0.0000   0.0000   0.0000

          k = 0.5000-0.5000 0.5000 (  1436 PWs)   bands (ev):

   -45.7925   4.0810   4.0810   4.0810   8.7764  23.6147

     occupation numbers 
     1.0000   0.0000   0.0000   0.0000   0.0000   0.0000

          k = 0.0000 0.0000 0.6667 (  1417 PWs)   bands (ev):

   -45.7885   1.5372   7.4447   7.4447   9.7183  12.6576

     occupation numbers 
     1.0000   0.0000   0.0000   0.0000   0.0000   0.0000

          k = 0.0000-0.0833 0.7500 (  1412 PWs)   bands (ev):

   -45.7863   2.7243   6.1730   6.9552   9.8404  12.3797

     occupation numbers 
     1.0000   0.0000   0.0000   0.0000   0.0000   0.0000

          k = 0.0000 0.8333-0.1667 (  1412 PWs)   bands (ev):

   -45.7855   3.6916   5.0350   6.7912  10.2574  12.1402

     occupation numbers 
     1.0000   0.0000   0.0000   0.0000   0.0000   0.0000

          k =-0.0833 0.9167-0.1667 (  1411 PWs)   bands (ev):

   -45.7848   3.9901   5.4243   6.4060  10.0680  11.3333

     occupation numbers 
     1.0000   0.0000   0.0000   0.0000   0.0000   0.0000

          k = 0.0000 0.0000 0.8333 (  1408 PWs)   bands (ev):

   -45.7842   3.9638   6.4649   6.4649   8.6915  10.8834

     occupation numbers 
     1.0000   0.0000   0.0000   0.0000   0.0000   0.0000

          k = 0.0000 0.9167-0.0833 (  1428 PWs)   bands (ev):

   -45.7835   5.0911   5.7079   6.3007   9.0006   9.7313

     occupation numbers 
     1.0000   0.0000   0.0000   0.0000   0.0000   0.0000

          k = 0.0000 0.0000-1.0000 (  1464 PWs)   bands (ev):

   -45.7827   6.1364   6.1364   6.1364   8.3492   8.3492

     occupation numbers 
     1.0000   0.0000   0.0000   0.0000   0.0000   0.0000

     the Fermi energy is     0.7905 ev

!    total energy              =     -14.47161344 Ry
     estimated scf accuracy    <          2.7E-12 Ry
     smearing contrib. (-TS)   =      -0.00009902 Ry
     internal energy E=F+TS    =     -14.47151442 Ry

     The total energy is F=E-TS. E is the sum of the following terms:
     one-electron contribution =      -9.83633227 Ry
     hartree contribution      =       3.69758194 Ry
     xc contribution           =      -3.37017302 Ry
     ewald contribution        =      -4.96259107 Ry

     convergence has been achieved in  10 iterations

     Forces acting on atoms (cartesian axes, Ry/au):

     atom    1 type  1   force =     0.00000000    0.00000000    0.00000000
     The non-local contrib.  to forces
     atom    1 type  1   force =     0.00000000    0.00000000    0.00000000
     The ionic contribution  to forces
     atom    1 type  1   force =    -0.00000000   -0.00000000   -0.00000000
     The local contribution  to forces
     atom    1 type  1   force =     0.00000000   -0.00000000    0.00000000
     The core correction contribution to forces
     atom    1 type  1   force =     0.00000000    0.00000000    0.00000000
     The Hubbard contrib.    to forces
     atom    1 type  1   force =     0.00000000    0.00000000    0.00000000
     The SCF correction term to forces
     atom    1 type  1   force =    -0.00000000   -0.00000000    0.00000000

     Total force =     0.000000     Total SCF correction =     0.000000


     Computing stress (Cartesian axis) and pressure

          total   stress  (Ry/bohr**3)                   (kbar)     P=       -6.12
  -0.00004161  -0.00000000   0.00000000           -6.12       -0.00        0.00
  -0.00000000  -0.00004161  -0.00000000           -0.00       -6.12       -0.00
   0.00000000  -0.00000000  -0.00004161            0.00       -0.00       -6.12

     kinetic stress (kbar)   2161.98     -0.00      0.00
                               -0.00   2161.98     -0.00
                                0.00     -0.00   2161.98

     local   stress (kbar)    275.30     -0.00     -0.00
                               -0.00    275.30     -0.00
                               -0.00     -0.00    275.30

     nonloc. stress (kbar)   -907.90      0.00      0.00
                                0.00   -907.90     -0.00
                                0.00     -0.00   -907.90

     hartree stress (kbar)   1261.31     -0.00     -0.00
                               -0.00   1261.31      0.00
                               -0.00      0.00   1261.31

     exc-cor stress (kbar)  -1103.98     -0.00     -0.00
                               -0.00  -1103.98     -0.00
                               -0.00     -0.00  -1103.98

     corecor stress (kbar)      0.00      0.00      0.00
                                0.00      0.00      0.00
                                0.00      0.00      0.00

     ewald   stress (kbar)  -1692.83     -0.00     -0.00
                               -0.00  -1692.83      0.00
                               -0.00      0.00  -1692.83

     hubbard stress (kbar)      0.00      0.00      0.00
                                0.00      0.00      0.00
                                0.00      0.00      0.00

     DFT-D   stress (kbar)      0.00      0.00      0.00
                                0.00      0.00      0.00
                                0.00      0.00      0.00

     XDM     stress (kbar)      0.00      0.00      0.00
                                0.00      0.00      0.00
                                0.00      0.00      0.00

     dft-nl  stress (kbar)      0.00      0.00      0.00
                                0.00      0.00      0.00
                                0.00      0.00      0.00

     TS-vdW  stress (kbar)      0.00      0.00      0.00
                                0.00      0.00      0.00
                                0.00      0.00      0.00

     MDB     stress (kbar)      0.00      0.00      0.00
                                0.00      0.00      0.00
                                0.00      0.00      0.00

     3D-RISM stress (kbar)      0.00      0.00      0.00
                                0.00      0.00      0.00
                                0.00      0.00      0.00


     BFGS Geometry Optimization
     Energy error            =      1.9E-05 Ry
     Gradient error          =      0.0E+00 Ry/Bohr
     Cell gradient error     =      6.1E+00 kbar

     number of scf cycles    =   1
     number of bfgs steps    =   0

     enthalpy           new  =     -14.4716134379 Ry

     new trust radius        =       0.0024942639 bohr
ibrav =      3
 celldm(1) =      6.59313476
Input lattice vectors:
     0.49947991     0.49947991     0.49947991
    -0.49947991     0.49947991     0.49947991
    -0.49947991    -0.49947991     0.49947991
New lattice vectors in INITIAL alat:
     0.49947991     0.49947991     0.49947991
    -0.49947991     0.49947991     0.49947991
    -0.49947991    -0.49947991     0.49947991
New lattice vectors in NEW alat (for information only):
     0.50000000     0.50000000     0.50000000
    -0.50000000     0.50000000     0.50000000
    -0.50000000    -0.50000000     0.50000000
Discrepancy in bohr =     0.000000    0.000000    0.000000
     new conv_thr            =            1.0E-10 Ry

     new unit-cell volume =    143.29989 a.u.^3 (    21.23485 Ang^3 )
     density =      0.54278 g/cm^3

CELL_PARAMETERS (alat=  6.60000000)
   0.499479906   0.499479906   0.499479906
  -0.499479906   0.499479906   0.499479906
  -0.499479906  -0.499479906   0.499479906

ATOMIC_POSITIONS (crystal)
Li               0.0000000000        0.0000000000        0.0000000000



     Writing config-only to output data dir ./tmp_relax/Li.save/ :
     XML data file
     NEW-OLD atomic charge density approx. for the potential
     New effective cutoffs (rho, wfc):  539.46   70.14

     total cpu time spent up to now is        1.5 secs

     Self-consistent Calculation

     iteration #  1     ecut=    70.00 Ry     beta= 0.30
     Davidson diagonalization with overlap

---- Real-time Memory Report at c_bands before calling an iterative solver
             0 MiB given to the printing process from OS
             0 MiB allocation reported by mallinfo(arena+hblkhd)
             0 MiB available memory on the node where the printing process lives
------------------
     ethr =  1.00E-06,  avg # of iterations =  2.1

     Threshold (ethr) on eigenvalues was too large:
     Diagonalizing with lowered threshold

     Davidson diagonalization with overlap

---- Real-time Memory Report at c_bands before calling an iterative solver
             0 MiB given to the printing process from OS
             0 MiB allocation reported by mallinfo(arena+hblkhd)
             0 MiB available memory on the node where the printing process lives
------------------
     ethr =  2.54E-11,  avg # of iterations =  4.0

     total cpu time spent up to now is        1.8 secs

     total energy              =     -14.47163153 Ry
     estimated scf accuracy    <          4.9E-10 Ry

     iteration #  2     ecut=    70.00 Ry     beta= 0.30
     Davidson diagonalization with overlap

---- Real-time Memory Report at c_bands before calling an iterative solver
             0 MiB given to the printing process from OS
             0 MiB allocation reported by mallinfo(arena+hblkhd)
             0 MiB available memory on the node where the printing process lives
------------------
     ethr =  1.63E-11,  avg # of iterations =  1.0

     total cpu time spent up to now is        1.9 secs

     total energy              =     -14.47163153 Ry
     estimated scf accuracy    <          2.4E-10 Ry

     iteration #  3     ecut=    70.00 Ry     beta= 0.30
     Davidson diagonalization with overlap

---- Real-time Memory Report at c_bands before calling an iterative solver
             0 MiB given to the printing process from OS
             0 MiB allocation reported by mallinfo(arena+hblkhd)
             0 MiB available memory on the node where the printing process lives
------------------
     ethr =  7.84E-12,  avg # of iterations =  1.0

     total cpu time spent up to now is        2.0 secs

     End of self-consistent calculation

          k = 0.0000 0.0000 0.0000 (  1433 PWs)   bands (ev):

   -45.7949  -2.7118  14.9287  14.9287  14.9287  19.6163

     occupation numbers 
     1.0000   1.0000   0.0000   0.0000   0.0000   0.0000

          k = 0.0000-0.0834 0.0834 (  1443 PWs)   bands (ev):

   -45.7938  -2.5823  14.0645  14.3322  14.7106  18.0595

     occupation numbers 
     1.0000   1.0000   0.0000   0.0000   0.0000   0.0000

          k = 0.0000-0.1668 0.1668 (  1431 PWs)   bands (ev):

   -45.7909  -2.1937  11.7970  13.2360  14.1301  16.7667

     occupation numbers 
     1.0000   1.0000   0.0000   0.0000   0.0000   0.0000

          k = 0.0000-0.2503 0.2503 (  1428 PWs)   bands (ev):

   -45.7869  -1.5474   9.2148  12.2251  13.4211  15.5806

     occupation numbers 
     1.0000   1.0000   0.0000   0.0000   0.0000   0.0000

          k = 0.0000-0.3337 0.3337 (  1422 PWs)   bands (ev):

   -45.7829  -0.6583   6.8343  11.4613  12.8086  14.7295

     occupation numbers 
     1.0000   1.0000   0.0000   0.0000   0.0000   0.0000

          k = 0.0000-0.4171 0.4171 (  1424 PWs)   bands (ev):

   -45.7799   0.3883   4.8678  10.9922  12.4100  14.2179

     occupation numbers 
     1.0000   1.0013   0.0000   0.0000   0.0000   0.0000

          k = 0.0000 0.5005-0.5005 (  1416 PWs)   bands (ev):

   -45.7789   1.0552   3.8910  10.8345  12.2728  14.0472

     occupation numbers 
     1.0000   0.0006   0.0000   0.0000   0.0000   0.0000

          k =-0.0834-0.0834 0.1668 (  1443 PWs)   bands (ev):

   -45.7918  -2.3232  13.0057  13.0132  14.0322  17.3177

     occupation numbers 
     1.0000   1.0000   0.0000   0.0000   0.0000   0.0000

          k =-0.0834-0.1668 0.2503 (  1422 PWs)   bands (ev):

   -45.7883  -1.8046  10.5285  11.9544  13.1687  16.9717

     occupation numbers 
     1.0000   1.0000   0.0000   0.0000   0.0000   0.0000

          k =-0.0834-0.2503 0.3337 (  1428 PWs)   bands (ev):

   -45.7843  -1.0314   8.0280  11.0975  12.3855  16.3214

     occupation numbers 
     1.0000   1.0000   0.0000   0.0000   0.0000   0.0000

          k =-0.0834-0.3337 0.4171 (  1420 PWs)   bands (ev):

   -45.7809  -0.0368   5.8264  10.5055  11.8184  15.7900

     occupation numbers 
     1.0000   1.0000   0.0000   0.0000   0.0000   0.0000

          k =-0.0834 0.5839-0.5005 (  1416 PWs)   bands (ev):

   -45.7789   0.9702   4.2049  10.2046  11.5249  15.5071

     occupation numbers 
     1.0000   0.0115   0.0000   0.0000   0.0000   0.0000

          k =-0.1668-0.1668 0.3337 (  1423 PWs)   bands (ev):

   -45.7849  -1.1556   9.0245  10.0882  12.3492  17.0764

     occupation numbers 
     1.0000   1.0000   0.0000   0.0000   0.0000   0.0000

          k =-0.1668-0.2503 0.4171 (  1413 PWs)   bands (ev):

   -45.7814  -0.2564   6.9149   9.1368  11.7377  17.1702

     occupation numbers 
     1.0000   1.0000   0.0000   0.0000   0.0000   0.0000

          k =-0.1668 0.6674-0.5005 (  1420 PWs)   bands (ev):

   -45.7789   0.8257   4.9789   8.6508  11.3510  17.1028

     occupation numbers 
     1.0000   0.2818   0.0000   0.0000   0.0000   0.0000

          k =-0.1668 0.5839-0.4171 (  1420 PWs)   bands (ev):

   -45.7779   1.5616   3.9489   8.4930  11.2190  17.0523

     occupation numbers 
     1.0000   0.0000   0.0000   0.0000   0.0000   0.0000

          k =-0.2503 0.7508-0.5005 (  1417 PWs)   bands (ev):

   -45.7789   0.7628   5.5849   7.7421  11.3344  17.7806

     occupation numbers 
     1.0000   0.6011   0.0000   0.0000   0.0000   0.0000

          k =-0.2503 0.6674-0.4171 (  1427 PWs)   bands (ev):

   -45.7774   1.8978   4.1356   7.1796  11.1264  18.1555

     occupation numbers 
     1.0000   0.0000   0.0000   0.0000   0.0000   0.0000

          k =-0.3337 0.6674-0.3337 (  1421 PWs)   bands (ev):

   -45.7769   3.0769   3.0769   6.6345  11.0521  19.7626

     occupation numbers 
     1.0000   0.0000   0.0000   0.0000   0.0000   0.0000

          k =-0.0000 0.0000 0.1668 (  1441 PWs)   bands (ev):

   -45.7928  -2.4524  13.6550  13.6550  14.3916  16.9437

     occupation numbers 
     1.0000   1.0000   0.0000   0.0000   0.0000   0.0000

          k = 0.0000-0.0834 0.2503 (  1432 PWs)   bands (ev):

   -45.7899  -2.0623  11.7628  12.4827  13.9531  15.8503

     occupation numbers 
     1.0000   1.0000   0.0000   0.0000   0.0000   0.0000

          k =-0.0000-0.1668 0.3337 (  1419 PWs)   bands (ev):

   -45.7860  -1.4133   9.2692  11.4335  13.3388  15.7957

     occupation numbers 
     1.0000   1.0000   0.0000   0.0000   0.0000   0.0000

          k =-0.0000-0.2503 0.4171 (  1417 PWs)   bands (ev):

   -45.7820  -0.5191   6.9113  10.6498  12.7606  15.8728

     occupation numbers 
     1.0000   1.0000   0.0000   0.0000   0.0000   0.0000

          k =-0.0000-0.3337 0.5005 (  1418 PWs)   bands (ev):

   -45.7792   0.5388   4.9443  10.1710  12.3785  15.3737

     occupation numbers 
     1.0000   1.0484   0.0000   0.0000   0.0000   0.0000

          k = 0.0000 0.5839-0.4171 (  1422 PWs)   bands (ev):

   -45.7781   1.2230   3.9533  10.0103  12.2467  15.2067

     occupation numbers 
     1.0000   0.0000   0.0000   0.0000   0.0000   0.0000

          k =-0.0834-0.0834 0.3337 (  1422 PWs)   bands (ev):

   -45.7866  -1.5401  10.3451  10.8637  13.5621  15.0335

     occupation numbers 
     1.0000   1.0000   0.0000   0.0000   0.0000   0.0000

          k =-0.0834-0.1668 0.4171 (  1420 PWs)   bands (ev):

   -45.7827  -0.7604   8.1094   9.8515  13.0444  15.1085

     occupation numbers 
     1.0000   1.0000   0.0000   0.0000   0.0000   0.0000

          k =-0.0834-0.2503 0.5005 (  1423 PWs)   bands (ev):

   -45.7794   0.2477   5.9589   9.2306  12.5599  15.5485

     occupation numbers 
     1.0000   1.0000   0.0000   0.0000   0.0000   0.0000

          k =-0.0834 0.6674-0.4171 (  1422 PWs)   bands (ev):

   -45.7775   1.2896   4.3241   8.9202  12.2933  15.8229

     occupation numbers 
     1.0000   0.0000   0.0000   0.0000   0.0000   0.0000

          k =-0.1668 0.1668 0.1668 (  1427 PWs)   bands (ev):

   -45.7892  -1.9348  11.8629  11.8629  12.1212  17.7502

     occupation numbers 
     1.0000   1.0000   0.0000   0.0000   0.0000   0.0000

          k =-0.1668-0.1668 0.5005 (  1428 PWs)   bands (ev):

   -45.7795   0.1470   6.7185   8.3714  12.8177  15.1014

     occupation numbers 
     1.0000   1.0000   0.0000   0.0000   0.0000   0.0000

          k =-0.1668 0.7508-0.4171 (  1423 PWs)   bands (ev):

   -45.7771   1.2563   5.0288   7.6859  12.5618  15.6065

     occupation numbers 
     1.0000   0.0000   0.0000   0.0000   0.0000   0.0000

          k =-0.1668 0.6674-0.3337 (  1421 PWs)   bands (ev):

   -45.7762   2.0635   3.9843   7.4919  12.4559  15.9523

     occupation numbers 
     1.0000   0.0000   0.0000   0.0000   0.0000   0.0000

          k =-0.2503 0.2503 0.1668 (  1419 PWs)   bands (ev):

   -45.7857  -1.2873   9.3179  10.8294  11.2903  17.9243

     occupation numbers 
     1.0000   1.0000   0.0000   0.0000   0.0000   0.0000

          k =-0.2503 0.7508-0.3337 (  1424 PWs)   bands (ev):

   -45.7758   2.4407   3.9062   6.8288  12.5426  16.2887

     occupation numbers 
     1.0000   0.0000   0.0000   0.0000   0.0000   0.0000

          k =-0.3337 0.3337 0.1668 (  1414 PWs)   bands (ev):

   -45.7821  -0.3914   6.9428  10.0536  10.6820  17.7467

     occupation numbers 
     1.0000   1.0000   0.0000   0.0000   0.0000   0.0000

          k =-0.3337 0.2503 0.2503 (  1417 PWs)   bands (ev):

   -45.7826  -0.5106   7.9142   8.9527  10.5805  18.8293

     occupation numbers 
     1.0000   1.0000   0.0000   0.0000   0.0000   0.0000

          k = 0.5839-0.5839 0.1668 (  1420 PWs)   bands (ev):

   -45.7795   0.6803   4.9584   9.5784  10.3069  17.4882

     occupation numbers 
     1.0000   0.9840   0.0000   0.0000   0.0000   0.0000

          k = 0.5839-0.6674 0.2503 (  1430 PWs)   bands (ev):

   -45.7799   0.5060   5.9518   8.1069  10.1361  19.1924

     occupation numbers 
     1.0000   1.0283   0.0000   0.0000   0.0000   0.0000

          k = 0.5005-0.5005 0.1668 (  1434 PWs)   bands (ev):

   -45.7786   1.3939   3.9374   9.4187  10.1803  17.3821

     occupation numbers 
     1.0000   0.0000   0.0000   0.0000   0.0000   0.0000

          k = 0.5005-0.5839 0.2503 (  1424 PWs)   bands (ev):

   -45.7783   1.6003   4.2951   7.7551   9.9131  19.2228

     occupation numbers 
     1.0000   0.0000   0.0000   0.0000   0.0000   0.0000

          k = 0.5005-0.6674 0.3337 (  1426 PWs)   bands (ev):

   -45.7783   1.6330   4.7607   6.8561   9.8430  20.2564

     occupation numbers 
     1.0000   0.0000   0.0000   0.0000   0.0000   0.0000

          k = 0.4171-0.5839 0.3337 (  1425 PWs)   bands (ev):

   -45.7777   2.5761   3.7244   6.5035   9.7461  20.5264

     occupation numbers 
     1.0000   0.0000   0.0000   0.0000   0.0000   0.0000

          k =-0.0000 0.0000 0.3337 (  1429 PWs)   bands (ev):

   -45.7872  -1.6677  11.2488  11.2488  13.5637  13.8589

     occupation numbers 
     1.0000   1.0000   0.0000   0.0000   0.0000   0.0000

          k =-0.0000-0.0834 0.4171 (  1424 PWs)   bands (ev):

   -45.7835  -1.0106   9.3797  10.1710  12.9889  13.5852

     occupation numbers 
     1.0000   1.0000   0.0000   0.0000   0.0000   0.0000

          k = 0.0000-0.1668 0.5005 (  1418 PWs)   bands (ev):

   -45.7798  -0.1022   7.1422   9.3731  12.4951  14.1962

     occupation numbers 
     1.0000   1.0000   0.0000   0.0000   0.0000   0.0000

          k = 0.0000-0.2503 0.5839 (  1424 PWs)   bands (ev):

   -45.7771   0.9876   5.1852   8.8874  12.1801  15.1045

     occupation numbers 
     1.0000   0.0067   0.0000   0.0000   0.0000   0.0000

          k =-0.0000 0.6674-0.3337 (  1422 PWs)   bands (ev):

   -45.7761   1.7253   4.1516   8.7245  12.0713  15.7324

     occupation numbers 
     1.0000   0.0000   0.0000   0.0000   0.0000   0.0000

          k =-0.0834-0.0834 0.5005 (  1420 PWs)   bands (ev):

   -45.7799  -0.2190   8.0900   8.8648  12.7717  13.1753

     occupation numbers 
     1.0000   1.0000   0.0000   0.0000   0.0000   0.0000

          k =-0.0834-0.1668 0.5839 (  1423 PWs)   bands (ev):

   -45.7768   0.8128   6.2121   8.1168  12.5706  13.7062

     occupation numbers 
     1.0000   0.3387   0.0000   0.0000   0.0000   0.0000

          k =-0.0834 0.7508-0.3337 (  1422 PWs)   bands (ev):

   -45.7751   1.9217   4.5803   7.7869  12.3777  14.6940

     occupation numbers 
     1.0000   0.0000   0.0000   0.0000   0.0000   0.0000

          k =-0.1668 0.8342-0.3337 (  1422 PWs)   bands (ev):

   -45.7747   1.9509   5.0494   7.0873  13.2967  13.4938

     occupation numbers 
     1.0000   0.0000   0.0000   0.0000   0.0000   0.0000

          k =-0.1668 0.7508-0.2503 (  1417 PWs)   bands (ev):

   -45.7739   2.8951   4.0299   6.7818  13.2324  14.3867

     occupation numbers 
     1.0000   0.0000   0.0000   0.0000   0.0000   0.0000

          k = 0.6674-0.6674 0.3337 (  1418 PWs)   bands (ev):

   -45.7803   0.3944   7.1020   7.1020   9.6925  20.2690

     occupation numbers 
     1.0000   1.0016   0.0000   0.0000   0.0000   0.0000

          k = 0.5839-0.5839 0.3337 (  1426 PWs)   bands (ev):

   -45.7786   1.5249   5.1983   6.6099   9.3215  21.0171

     occupation numbers 
     1.0000   0.0000   0.0000   0.0000   0.0000   0.0000

          k = 0.5005-0.5005 0.3337 (  1430 PWs)   bands (ev):

   -45.7780   2.4088   4.0394   6.4452   9.2099  21.2415

     occupation numbers 
     1.0000   0.0000   0.0000   0.0000   0.0000   0.0000

          k = 0.5005-0.5839 0.4171 (  1425 PWs)   bands (ev):

   -45.7778   2.7539   4.2626   5.5555   9.0334  22.0995

     occupation numbers 
     1.0000   0.0000   0.0000   0.0000   0.0000   0.0000

          k = 0.0000 0.0000 0.5005 (  1413 PWs)   bands (ev):

   -45.7801  -0.3402   9.0801   9.0801  11.4586  13.0395

     occupation numbers 
     1.0000   1.0000   0.0000   0.0000   0.0000   0.0000

          k = 0.0000-0.0834 0.5839 (  1421 PWs)   bands (ev):

   -45.7767   0.5897   7.4804   8.2756  11.2032  13.0302

     occupation numbers 
     1.0000   1.0796   0.0000   0.0000   0.0000   0.0000

          k = 0.0000-0.1668 0.6674 (  1414 PWs)   bands (ev):

   -45.7742   1.7265   5.6110   7.7867  11.3971  13.5735

     occupation numbers 
     1.0000   0.0000   0.0000   0.0000   0.0000   0.0000

          k = 0.0000 0.7508-0.2503 (  1420 PWs)   bands (ev):

   -45.7733   2.5575   4.5125   7.6229  11.4561  14.6046

     occupation numbers 
     1.0000   0.0000   0.0000   0.0000   0.0000   0.0000

          k =-0.0834-0.0834 0.6674 (  1415 PWs)   bands (ev):

   -45.7739   1.6496   6.4409   7.3483  11.1043  12.9686

     occupation numbers 
     1.0000   0.0000   0.0000   0.0000   0.0000   0.0000

          k =-0.0834 0.8342-0.2503 (  1409 PWs)   bands (ev):

   -45.7723   2.8469   4.9822   6.9236  11.5228  13.3277

     occupation numbers 
     1.0000   0.0000   0.0000   0.0000   0.0000   0.0000

          k =-0.1668 0.8342-0.1668 (  1412 PWs)   bands (ev):

   -45.7716   4.0424   4.0424   6.4423  12.5041  12.5041

     occupation numbers 
     1.0000   0.0000   0.0000   0.0000   0.0000   0.0000

          k = 0.5005-0.5005 0.5005 (  1436 PWs)   bands (ev):

   -45.7777   4.0961   4.0961   4.0961   8.8119  23.6740

     occupation numbers 
     1.0000   0.0000   0.0000   0.0000   0.0000   0.0000

          k =-0.0000 0.0000 0.6674 (  1417 PWs)   bands (ev):

   -45.7736   1.5485   7.4678   7.4678   9.7439  12.6988

     occupation numbers 
     1.0000   0.0000   0.0000   0.0000   0.0000   0.0000

          k =-0.0000-0.0834 0.7508 (  1412 PWs)   bands (ev):

   -45.7714   2.7375   6.1934   6.9772   9.8670  12.4169

     occupation numbers 
     1.0000   0.0000   0.0000   0.0000   0.0000   0.0000

          k =-0.0000 0.8342-0.1668 (  1412 PWs)   bands (ev):

   -45.7705   3.7060   5.0537   6.8129  10.2860  12.1717

     occupation numbers 
     1.0000   0.0000   0.0000   0.0000   0.0000   0.0000

          k =-0.0834 0.9176-0.1668 (  1411 PWs)   bands (ev):

   -45.7699   4.0054   5.4426   6.4278  10.0950  11.3638

     occupation numbers 
     1.0000   0.0000   0.0000   0.0000   0.0000   0.0000

          k = 0.0000-0.0000 0.8342 (  1408 PWs)   bands (ev):

   -45.7693   3.9793   6.4858   6.4858   8.7150  10.9135

     occupation numbers 
     1.0000   0.0000   0.0000   0.0000   0.0000   0.0000

          k = 0.0000 0.9176-0.0834 (  1428 PWs)   bands (ev):

   -45.7685   5.1087   5.7273   6.3213   9.0252   9.7575

     occupation numbers 
     1.0000   0.0000   0.0000   0.0000   0.0000   0.0000

          k = 0.0000 0.0000-1.0010 (  1464 PWs)   bands (ev):

   -45.7678   6.1567   6.1567   6.1567   8.3720   8.3720

     occupation numbers 
     1.0000   0.0000   0.0000   0.0000   0.0000   0.0000

     the Fermi energy is     0.8001 ev

!    total energy              =     -14.47163153 Ry
     estimated scf accuracy    <          3.8E-13 Ry
     smearing contrib. (-TS)   =      -0.00009933 Ry
     internal energy E=F+TS    =     -14.47153221 Ry

     The total energy is F=E-TS. E is the sum of the following terms:
     one-electron contribution =      -9.82848219 Ry
     hartree contribution      =       3.69531476 Ry
     xc contribution           =      -3.37060630 Ry
     ewald contribution        =      -4.96775847 Ry

     convergence has been achieved in   3 iterations

     Forces acting on atoms (cartesian axes, Ry/au):

     atom    1 type  1   force =     0.00000000    0.00000000    0.00000000
     The non-local contrib.  to forces
     atom    1 type  1   force =     0.00000000    0.00000000   -0.00000000
     The ionic contribution  to forces
     atom    1 type  1   force =    -0.00000000   -0.00000000   -0.00000000
     The local contribution  to forces
     atom    1 type  1   force =     0.00000000    0.00000000   -0.00000000
     The core correction contribution to forces
     atom    1 type  1   force =     0.00000000    0.00000000    0.00000000
     The Hubbard contrib.    to forces
     atom    1 type  1   force =     0.00000000    0.00000000    0.00000000
     The SCF correction term to forces
     atom    1 type  1   force =     0.00000000   -0.00000000    0.00000000

     Total force =     0.000000     Total SCF correction =     0.000000


     Computing stress (Cartesian axis) and pressure

          total   stress  (Ry/bohr**3)                   (kbar)     P=       -5.76
  -0.00003914  -0.00000000   0.00000000           -5.76       -0.00        0.00
  -0.00000000  -0.00003914  -0.00000000           -0.00       -5.76       -0.00
   0.00000000  -0.00000000  -0.00003914            0.00       -0.00       -5.76

     kinetic stress (kbar)   2169.26     -0.00      0.00
                               -0.00   2169.26     -0.00
                                0.00     -0.00   2169.26

     local   stress (kbar)    278.64     -0.00     -0.00
                               -0.00    278.64      0.00
                               -0.00      0.00    278.64

     nonloc. stress (kbar)   -910.67      0.00     -0.00
                                0.00   -910.67      0.00
                               -0.00      0.00   -910.67

     hartree stress (kbar)   1264.48      0.00      0.00
                                0.00   1264.48      0.00
                                0.00      0.00   1264.48

     exc-cor stress (kbar)  -1107.57      0.00      0.00
                                0.00  -1107.57     -0.00
                                0.00     -0.00  -1107.57

     corecor stress (kbar)      0.00      0.00      0.00
                                0.00      0.00      0.00
                                0.00      0.00      0.00

     ewald   stress (kbar)  -1699.89     -0.00     -0.00
                               -0.00  -1699.89      0.00
                               -0.00      0.00  -1699.89

     hubbard stress (kbar)      0.00      0.00      0.00
                                0.00      0.00      0.00
                                0.00      0.00      0.00

     DFT-D   stress (kbar)      0.00      0.00      0.00
                                0.00      0.00      0.00
                                0.00      0.00      0.00

     XDM     stress (kbar)      0.00      0.00      0.00
                                0.00      0.00      0.00
                                0.00      0.00      0.00

     dft-nl  stress (kbar)      0.00      0.00      0.00
                                0.00      0.00      0.00
                                0.00      0.00      0.00

     TS-vdW  stress (kbar)      0.00      0.00      0.00
                                0.00      0.00      0.00
                                0.00      0.00      0.00

     MDB     stress (kbar)      0.00      0.00      0.00
                                0.00      0.00      0.00
                                0.00      0.00      0.00

     3D-RISM stress (kbar)      0.00      0.00      0.00
                                0.00      0.00      0.00
                                0.00      0.00      0.00

     Energy error            =      1.8E-05 Ry
     Gradient error          =      0.0E+00 Ry/Bohr
     Cell gradient error     =      5.8E+00 kbar

     number of scf cycles    =   2
     number of bfgs steps    =   1

     enthalpy           old  =     -14.4716134379 Ry
     enthalpy           new  =     -14.4716315343 Ry

     CASE: enthalpy          _new < enthalpy          _old


     WARNING: bfgs curvature condition failed, Theta= 0.852
     new trust radius        =       0.0037394495 bohr
ibrav =      3
 celldm(1) =      6.58283691
Input lattice vectors:
     0.49869977     0.49869977     0.49869977
    -0.49869977     0.49869977     0.49869977
    -0.49869977    -0.49869977     0.49869977
New lattice vectors in INITIAL alat:
     0.49869977     0.49869977     0.49869977
    -0.49869977     0.49869977     0.49869977
    -0.49869977    -0.49869977     0.49869977
New lattice vectors in NEW alat (for information only):
     0.50000000     0.50000000     0.50000000
    -0.50000000     0.50000000     0.50000000
    -0.50000000    -0.50000000     0.50000000
Discrepancy in bohr =     0.000000    0.000000    0.000000
     new conv_thr            =            1.0E-12 Ry

     new unit-cell volume =    142.62948 a.u.^3 (    21.13551 Ang^3 )
     density =      0.54533 g/cm^3

CELL_PARAMETERS (alat=  6.60000000)
   0.498699766   0.498699766   0.498699766
  -0.498699766   0.498699766   0.498699766
  -0.498699766  -0.498699766   0.498699766

ATOMIC_POSITIONS (crystal)
Li               0.0000000000        0.0000000000        0.0000000000



     Writing config-only to output data dir ./tmp_relax/Li.save/ :
     XML data file
     NEW-OLD atomic charge density approx. for the potential
     New effective cutoffs (rho, wfc):  541.15   70.36

     total cpu time spent up to now is        2.1 secs

     Self-consistent Calculation

     iteration #  1     ecut=    70.00 Ry     beta= 0.30
     Davidson diagonalization with overlap

---- Real-time Memory Report at c_bands before calling an iterative solver
             0 MiB given to the printing process from OS
             0 MiB allocation reported by mallinfo(arena+hblkhd)
             0 MiB available memory on the node where the printing process lives
------------------
     ethr =  1.00E-06,  avg # of iterations =  2.2

     Threshold (ethr) on eigenvalues was too large:
     Diagonalizing with lowered threshold

     Davidson diagonalization with overlap

---- Real-time Memory Report at c_bands before calling an iterative solver
             0 MiB given to the printing process from OS
             0 MiB allocation reported by mallinfo(arena+hblkhd)
             0 MiB available memory on the node where the printing process lives
------------------
     ethr =  5.76E-11,  avg # of iterations =  3.9

     total cpu time spent up to now is        2.4 secs

     total energy              =     -14.47165648 Ry
     estimated scf accuracy    <          1.2E-09 Ry

     iteration #  2     ecut=    70.00 Ry     beta= 0.30
     Davidson diagonalization with overlap

---- Real-time Memory Report at c_bands before calling an iterative solver
             0 MiB given to the printing process from OS
             0 MiB allocation reported by mallinfo(arena+hblkhd)
             0 MiB available memory on the node where the printing process lives
------------------
     ethr =  3.92E-11,  avg # of iterations =  1.0

     total cpu time spent up to now is        2.5 secs

     total energy              =     -14.47165648 Ry
     estimated scf accuracy    <          5.6E-10 Ry

     iteration #  3     ecut=    70.00 Ry     beta= 0.30
     Davidson diagonalization with overlap

---- Real-time Memory Report at c_bands before calling an iterative solver
             0 MiB given to the printing process from OS
             0 MiB allocation reported by mallinfo(arena+hblkhd)
             0 MiB available memory on the node where the printing process lives
------------------
     ethr =  1.87E-11,  avg # of iterations =  1.0

     total cpu time spent up to now is        2.6 secs

     total energy              =     -14.47165648 Ry
     estimated scf accuracy    <          1.1E-12 Ry

     iteration #  4     ecut=    70.00 Ry     beta= 0.30
     Davidson diagonalization with overlap

---- Real-time Memory Report at c_bands before calling an iterative solver
             0 MiB given to the printing process from OS
             0 MiB allocation reported by mallinfo(arena+hblkhd)
             0 MiB available memory on the node where the printing process lives
------------------
     ethr =  1.00E-13,  avg # of iterations =  4.0

     total cpu time spent up to now is        2.7 secs

     End of self-consistent calculation

          k = 0.0000 0.0000 0.0000 (  1433 PWs)   bands (ev):

   -45.7728  -2.7040  14.9905  14.9905  14.9905  19.6875

     occupation numbers 
     1.0000   1.0000   0.0000   0.0000   0.0000   0.0000

          k = 0.0000-0.0836 0.0836 (  1443 PWs)   bands (ev):

   -45.7718  -2.5743  14.1229  14.3915  14.7713  18.1255

     occupation numbers 
     1.0000   1.0000   0.0000   0.0000   0.0000   0.0000

          k = 0.0000-0.1671 0.1671 (  1431 PWs)   bands (ev):

   -45.7688  -2.1850  11.8470  13.2911  14.1880  16.8282

     occupation numbers 
     1.0000   1.0000   0.0000   0.0000   0.0000   0.0000

          k = 0.0000-0.2507 0.2507 (  1428 PWs)   bands (ev):

   -45.7647  -1.5376   9.2566  12.2767  13.4759  15.6383

     occupation numbers 
     1.0000   1.0000   0.0000   0.0000   0.0000   0.0000

          k = 0.0000-0.3342 0.3342 (  1422 PWs)   bands (ev):

   -45.7606  -0.6469   6.8692  11.5103  12.8611  14.7845

     occupation numbers 
     1.0000   1.0000   0.0000   0.0000   0.0000   0.0000

          k =-0.0000-0.4178 0.4178 (  1424 PWs)   bands (ev):

   -45.7576   0.4012   4.8980  11.0397  12.4609  14.2713

     occupation numbers 
     1.0000   1.0013   0.0000   0.0000   0.0000   0.0000

          k =-0.0000 0.5013-0.5013 (  1416 PWs)   bands (ev):

   -45.7565   1.0683   3.9200  10.8814  12.3232  14.1001

     occupation numbers 
     1.0000   0.0007   0.0000   0.0000   0.0000   0.0000

          k =-0.0836-0.0836 0.1671 (  1443 PWs)   bands (ev):

   -45.7697  -2.3147  13.0588  13.0685  14.0898  17.3822

     occupation numbers 
     1.0000   1.0000   0.0000   0.0000   0.0000   0.0000

          k =-0.0836-0.1671 0.2507 (  1422 PWs)   bands (ev):

   -45.7662  -1.7952  10.5738  12.0055  13.2226  17.0361

     occupation numbers 
     1.0000   1.0000   0.0000   0.0000   0.0000   0.0000

          k =-0.0836-0.2507 0.3342 (  1428 PWs)   bands (ev):

   -45.7621  -1.0206   8.0658  11.1457  12.4364  16.3836

     occupation numbers 
     1.0000   1.0000   0.0000   0.0000   0.0000   0.0000

          k =-0.0836-0.3342 0.4178 (  1420 PWs)   bands (ev):

   -45.7585  -0.0243   5.8583  10.5518  11.8673  15.8503

     occupation numbers 
     1.0000   1.0000   0.0000   0.0000   0.0000   0.0000

          k =-0.0836 0.5849-0.5013 (  1416 PWs)   bands (ev):

   -45.7565   0.9837   4.2336  10.2499  11.5728  15.5663

     occupation numbers 
     1.0000   0.0118   0.0000   0.0000   0.0000   0.0000

          k =-0.1671-0.1671 0.3342 (  1423 PWs)   bands (ev):

   -45.7626  -1.1450   9.0632  10.1350  12.4006  17.1406

     occupation numbers 
     1.0000   1.0000   0.0000   0.0000   0.0000   0.0000

          k =-0.1671-0.2507 0.4178 (  1413 PWs)   bands (ev):

   -45.7591  -0.2441   6.9479   9.1802  11.7873  17.2359

     occupation numbers 
     1.0000   1.0000   0.0000   0.0000   0.0000   0.0000

          k =-0.1671 0.6684-0.5013 (  1420 PWs)   bands (ev):

   -45.7565   0.8398   5.0074   8.6925  11.3996  17.1696

     occupation numbers 
     1.0000   0.2828   0.0000   0.0000   0.0000   0.0000

          k =-0.1671 0.5849-0.4178 (  1420 PWs)   bands (ev):

   -45.7556   1.5762   3.9759   8.5342  11.2672  17.1192

     occupation numbers 
     1.0000   0.0000   0.0000   0.0000   0.0000   0.0000

          k =-0.2507 0.7520-0.5013 (  1417 PWs)   bands (ev):

   -45.7565   0.7771   5.6125   7.7833  11.3834  17.8467

     occupation numbers 
     1.0000   0.6013   0.0000   0.0000   0.0000   0.0000

          k =-0.2507 0.6684-0.4178 (  1427 PWs)   bands (ev):

   -45.7550   1.9142   4.1596   7.2195  11.1751  18.2246

     occupation numbers 
     1.0000   0.0000   0.0000   0.0000   0.0000   0.0000

          k =-0.3342 0.6684-0.3342 (  1421 PWs)   bands (ev):

   -45.7545   3.0964   3.0964   6.6744  11.1008  19.4634

     occupation numbers 
     1.0000   0.0000   0.0000   0.0000   0.0000   0.0000

          k =-0.0000 0.0000 0.1671 (  1441 PWs)   bands (ev):

   -45.7707  -2.4442  13.7114  13.7114  14.4522  17.0049

     occupation numbers 
     1.0000   1.0000   0.0000   0.0000   0.0000   0.0000

          k =-0.0000-0.0836 0.2507 (  1432 PWs)   bands (ev):

   -45.7677  -2.0534  11.8123  12.5346  14.0119  15.9092

     occupation numbers 
     1.0000   1.0000   0.0000   0.0000   0.0000   0.0000

          k =-0.0000-0.1671 0.3342 (  1419 PWs)   bands (ev):

   -45.7637  -1.4031   9.3107  11.4818  13.3947  15.8560

     occupation numbers 
     1.0000   1.0000   0.0000   0.0000   0.0000   0.0000

          k =-0.0000-0.2507 0.4178 (  1417 PWs)   bands (ev):

   -45.7597  -0.5074   6.9461  10.6955  12.8142  15.9322

     occupation numbers 
     1.0000   1.0000   0.0000   0.0000   0.0000   0.0000

          k =-0.0000-0.3342 0.5013 (  1418 PWs)   bands (ev):

   -45.7568   0.5521   4.9744  10.2151  12.4307  15.4315

     occupation numbers 
     1.0000   1.0477   0.0000   0.0000   0.0000   0.0000

          k =-0.0000 0.5849-0.4178 (  1422 PWs)   bands (ev):

   -45.7557   1.2366   3.9820  10.0539  12.2984  15.2640

     occupation numbers 
     1.0000   0.0000   0.0000   0.0000   0.0000   0.0000

          k =-0.0836-0.0836 0.3342 (  1422 PWs)   bands (ev):

   -45.7644  -1.5302  10.3886  10.9116  13.6196  15.0900

     occupation numbers 
     1.0000   1.0000   0.0000   0.0000   0.0000   0.0000

          k =-0.0836-0.1671 0.4178 (  1420 PWs)   bands (ev):

   -45.7604  -0.7490   8.1465   9.8960  13.0993  15.1659

     occupation numbers 
     1.0000   1.0000   0.0000   0.0000   0.0000   0.0000

          k =-0.0836-0.2507 0.5013 (  1423 PWs)   bands (ev):

   -45.7570   0.2609   5.9903   9.2729  12.6126  15.6084

     occupation numbers 
     1.0000   1.0000   0.0000   0.0000   0.0000   0.0000

          k =-0.0836 0.6684-0.4178 (  1422 PWs)   bands (ev):

   -45.7551   1.3041   4.3523   8.9615  12.3451  15.8848

     occupation numbers 
     1.0000   0.0000   0.0000   0.0000   0.0000   0.0000

          k =-0.1671 0.1671 0.1671 (  1427 PWs)   bands (ev):

   -45.7671  -1.9257  11.9114  11.9114  12.1752  17.8179

     occupation numbers 
     1.0000   1.0000   0.0000   0.0000   0.0000   0.0000

          k =-0.1671-0.1671 0.5013 (  1428 PWs)   bands (ev):

   -45.7571   0.1602   6.7498   8.4137  12.8713  15.1584

     occupation numbers 
     1.0000   1.0000   0.0000   0.0000   0.0000   0.0000

          k =-0.1671 0.7520-0.4178 (  1423 PWs)   bands (ev):

   -45.7547   1.2717   5.0557   7.7264  12.6141  15.6657

     occupation numbers 
     1.0000   0.0000   0.0000   0.0000   0.0000   0.0000

          k =-0.1671 0.6684-0.3342 (  1421 PWs)   bands (ev):

   -45.7538   2.0797   4.0095   7.5318  12.5078  16.0136

     occupation numbers 
     1.0000   0.0000   0.0000   0.0000   0.0000   0.0000

          k =-0.2507 0.2507 0.1671 (  1419 PWs)   bands (ev):

   -45.7634  -1.2770   9.3586  10.8741  11.3420  17.9927

     occupation numbers 
     1.0000   1.0000   0.0000   0.0000   0.0000   0.0000

          k =-0.2507 0.7520-0.3342 (  1424 PWs)   bands (ev):

   -45.7534   2.4587   3.9284   6.8692  12.5948  16.3495

     occupation numbers 
     1.0000   0.0000   0.0000   0.0000   0.0000   0.0000

          k =-0.3342 0.3342 0.1671 (  1414 PWs)   bands (ev):

   -45.7598  -0.3794   6.9768  10.0956  10.7321  17.8139

     occupation numbers 
     1.0000   1.0000   0.0000   0.0000   0.0000   0.0000

          k =-0.3342 0.2507 0.2507 (  1417 PWs)   bands (ev):

   -45.7603  -0.4988   7.9493   8.9931  10.6308  18.9017

     occupation numbers 
     1.0000   1.0000   0.0000   0.0000   0.0000   0.0000

          k = 0.5849-0.5849 0.1671 (  1420 PWs)   bands (ev):

   -45.7572   0.6940   4.9876   9.6188  10.3561  17.5542

     occupation numbers 
     1.0000   0.9860   0.0000   0.0000   0.0000   0.0000

          k = 0.5849-0.6684 0.2507 (  1430 PWs)   bands (ev):

   -45.7575   0.5198   5.9815   8.1446  10.1857  19.2660

     occupation numbers 
     1.0000   1.0279   0.0000   0.0000   0.0000   0.0000

          k = 0.5013-0.5013 0.1671 (  1434 PWs)   bands (ev):

   -45.7562   1.4080   3.9650   9.4586  10.2291  17.4476

     occupation numbers 
     1.0000   0.0000   0.0000   0.0000   0.0000   0.0000

          k = 0.5013-0.5849 0.2507 (  1424 PWs)   bands (ev):

   -45.7560   1.6158   4.3213   7.7915   9.9624  19.2964

     occupation numbers 
     1.0000   0.0000   0.0000   0.0000   0.0000   0.0000

          k = 0.5013-0.6684 0.3342 (  1426 PWs)   bands (ev):

   -45.7559   1.6491   4.7856   6.8919   9.8925  20.3352

     occupation numbers 
     1.0000   0.0000   0.0000   0.0000   0.0000   0.0000

          k = 0.4178-0.5849 0.3342 (  1425 PWs)   bands (ev):

   -45.7553   2.5940   3.7467   6.5386   9.7957  20.6059

     occupation numbers 
     1.0000   0.0000   0.0000   0.0000   0.0000   0.0000

          k =-0.0000 0.0000 0.3342 (  1429 PWs)   bands (ev):

   -45.7650  -1.6580  11.2962  11.2962  13.6237  13.9104

     occupation numbers 
     1.0000   1.0000   0.0000   0.0000   0.0000   0.0000

          k =-0.0000-0.0836 0.4178 (  1424 PWs)   bands (ev):

   -45.7612  -0.9996   9.4210  10.2148  13.0428  13.6412

     occupation numbers 
     1.0000   1.0000   0.0000   0.0000   0.0000   0.0000

          k =-0.0000-0.1671 0.5013 (  1418 PWs)   bands (ev):

   -45.7574  -0.0894   7.1769   9.4142  12.5493  14.2527

     occupation numbers 
     1.0000   1.0000   0.0000   0.0000   0.0000   0.0000

          k =-0.0000-0.2507 0.5849 (  1424 PWs)   bands (ev):

   -45.7547   1.0023   5.2149   8.9269  12.2339  15.1636

     occupation numbers 
     1.0000   0.0067   0.0000   0.0000   0.0000   0.0000

          k =-0.0000 0.6684-0.3342 (  1422 PWs)   bands (ev):

   -45.7537   1.7405   4.1798   8.7635  12.1250  15.7939

     occupation numbers 
     1.0000   0.0000   0.0000   0.0000   0.0000   0.0000

          k =-0.0836-0.0836 0.5013 (  1420 PWs)   bands (ev):

   -45.7576  -0.2063   8.1260   8.9058  12.8208  13.2348

     occupation numbers 
     1.0000   1.0000   0.0000   0.0000   0.0000   0.0000

          k =-0.0836-0.1671 0.5849 (  1423 PWs)   bands (ev):

   -45.7544   0.8276   6.2430   8.1557  12.6238  13.7624

     occupation numbers 
     1.0000   0.3370   0.0000   0.0000   0.0000   0.0000

          k =-0.0836 0.7520-0.3342 (  1422 PWs)   bands (ev):

   -45.7526   1.9383   4.6077   7.8248  12.4315  14.7522

     occupation numbers 
     1.0000   0.0000   0.0000   0.0000   0.0000   0.0000

          k =-0.1671 0.8355-0.3342 (  1422 PWs)   bands (ev):

   -45.7523   1.9682   5.0753   7.1258  13.3551  13.5455

     occupation numbers 
     1.0000   0.0000   0.0000   0.0000   0.0000   0.0000

          k =-0.1671 0.7520-0.2507 (  1417 PWs)   bands (ev):

   -45.7515   2.9141   4.0533   6.8200  13.2889  14.4430

     occupation numbers 
     1.0000   0.0000   0.0000   0.0000   0.0000   0.0000

          k = 0.6684-0.6684 0.3342 (  1418 PWs)   bands (ev):

   -45.7579   0.4080   7.1344   7.1344   9.7442  20.3461

     occupation numbers 
     1.0000   1.0016   0.0000   0.0000   0.0000   0.0000

          k = 0.5849-0.5849 0.3342 (  1426 PWs)   bands (ev):

   -45.7562   1.5409   5.2253   6.6407   9.3733  21.0966

     occupation numbers 
     1.0000   0.0000   0.0000   0.0000   0.0000   0.0000

          k = 0.5013-0.5013 0.3342 (  1430 PWs)   bands (ev):

   -45.7556   2.4262   4.0639   6.4754   9.2618  21.3217

     occupation numbers 
     1.0000   0.0000   0.0000   0.0000   0.0000   0.0000

          k = 0.5013-0.5849 0.4178 (  1425 PWs)   bands (ev):

   -45.7554   2.7728   4.2859   5.5838   9.0859  22.1838

     occupation numbers 
     1.0000   0.0000   0.0000   0.0000   0.0000   0.0000

          k = 0.0000 0.0000 0.5013 (  1413 PWs)   bands (ev):

   -45.7578  -0.3278   9.1202   9.1202  11.5026  13.1010

     occupation numbers 
     1.0000   1.0000   0.0000   0.0000   0.0000   0.0000

          k = 0.0000-0.0836 0.5849 (  1421 PWs)   bands (ev):

   -45.7543   0.6042   7.5153   8.3130  11.2476  13.0916

     occupation numbers 
     1.0000   1.0797   0.0000   0.0000   0.0000   0.0000

          k = 0.0000-0.1671 0.6684 (  1414 PWs)   bands (ev):

   -45.7518   1.7433   5.6408   7.8225  11.4456  13.6331

     occupation numbers 
     1.0000   0.0000   0.0000   0.0000   0.0000   0.0000

          k =-0.0000 0.7520-0.2507 (  1420 PWs)   bands (ev):

   -45.7508   2.5754   4.5404   7.6582  11.5066  14.6670

     occupation numbers 
     1.0000   0.0000   0.0000   0.0000   0.0000   0.0000

          k =-0.0836-0.0836 0.6684 (  1415 PWs)   bands (ev):

   -45.7515   1.6666   6.4716   7.3843  11.1481  13.0300

     occupation numbers 
     1.0000   0.0000   0.0000   0.0000   0.0000   0.0000

          k =-0.0836 0.8355-0.2507 (  1409 PWs)   bands (ev):

   -45.7498   2.8664   5.0091   6.9586  11.5698  13.3848

     occupation numbers 
     1.0000   0.0000   0.0000   0.0000   0.0000   0.0000

          k =-0.1671 0.8355-0.1671 (  1412 PWs)   bands (ev):

   -45.7491   4.0651   4.0651   6.4780  12.5526  12.5526

     occupation numbers 
     1.0000   0.0000   0.0000   0.0000   0.0000   0.0000

          k = 0.5013-0.5013 0.5013 (  1436 PWs)   bands (ev):

   -45.7553   4.1188   4.1188   4.1188   8.8655  23.7633

     occupation numbers 
     1.0000   0.0000   0.0000   0.0000   0.0000   0.0000

          k =-0.0000 0.0000 0.6684 (  1417 PWs)   bands (ev):

   -45.7512   1.5654   7.5025   7.5025   9.7825  12.7609

     occupation numbers 
     1.0000   0.0000   0.0000   0.0000   0.0000   0.0000

          k =-0.0000-0.0836 0.7520 (  1412 PWs)   bands (ev):

   -45.7489   2.7573   6.2241   7.0104   9.9069  12.4729

     occupation numbers 
     1.0000   0.0000   0.0000   0.0000   0.0000   0.0000

          k =-0.0000 0.8355-0.1671 (  1412 PWs)   bands (ev):

   -45.7480   3.7276   5.0818   6.8456  10.3290  12.2192

     occupation numbers 
     1.0000   0.0000   0.0000   0.0000   0.0000   0.0000

          k =-0.0836 0.9191-0.1671 (  1411 PWs)   bands (ev):

   -45.7474   4.0285   5.4700   6.4607  10.1355  11.4097

     occupation numbers 
     1.0000   0.0000   0.0000   0.0000   0.0000   0.0000

          k = 0.0000-0.0000 0.8355 (  1408 PWs)   bands (ev):

   -45.7467   4.0027   6.5174   6.5174   8.7503  10.9588

     occupation numbers 
     1.0000   0.0000   0.0000   0.0000   0.0000   0.0000

          k = 0.0000 0.9191-0.0836 (  1428 PWs)   bands (ev):

   -45.7460   5.1350   5.7567   6.3523   9.0622   9.7970

     occupation numbers 
     1.0000   0.0000   0.0000   0.0000   0.0000   0.0000

          k =-0.0000-0.0000-1.0026 (  1464 PWs)   bands (ev):

   -45.7452   6.1872   6.1872   6.1872   8.4063   8.4063

     occupation numbers 
     1.0000   0.0000   0.0000   0.0000   0.0000   0.0000

     the Fermi energy is     0.8145 ev

!    total energy              =     -14.47165648 Ry
     estimated scf accuracy    <          2.5E-14 Ry
     smearing contrib. (-TS)   =      -0.00009979 Ry
     internal energy E=F+TS    =     -14.47155669 Ry

     The total energy is F=E-TS. E is the sum of the following terms:
     one-electron contribution =      -9.81667938 Ry
     hartree contribution      =       3.69191351 Ry
     xc contribution           =      -3.37126105 Ry
     ewald contribution        =      -4.97552977 Ry

     convergence has been achieved in   4 iterations

     Forces acting on atoms (cartesian axes, Ry/au):

     atom    1 type  1   force =     0.00000000    0.00000000    0.00000000
     The non-local contrib.  to forces
     atom    1 type  1   force =    -0.00000000    0.00000000   -0.00000000
     The ionic contribution  to forces
     atom    1 type  1   force =    -0.00000000   -0.00000000   -0.00000000
     The local contribution  to forces
     atom    1 type  1   force =     0.00000000    0.00000000    0.00000000
     The core correction contribution to forces
     atom    1 type  1   force =     0.00000000    0.00000000    0.00000000
     The Hubbard contrib.    to forces
     atom    1 type  1   force =     0.00000000    0.00000000    0.00000000
     The SCF correction term to forces
     atom    1 type  1   force =     0.00000000    0.00000000    0.00000000

     Total force =     0.000000     Total SCF correction =     0.000000


     Computing stress (Cartesian axis) and pressure

          total   stress  (Ry/bohr**3)                   (kbar)     P=       -5.19
  -0.00003530  -0.00000000   0.00000000           -5.19       -0.00        0.00
  -0.00000000  -0.00003530  -0.00000000           -0.00       -5.19       -0.00
   0.00000000  -0.00000000  -0.00003530            0.00       -0.00       -5.19

     kinetic stress (kbar)   2180.25     -0.00      0.00
                               -0.00   2180.25     -0.00
                                0.00     -0.00   2180.25

     local   stress (kbar)    283.69     -0.00      0.00
                               -0.00    283.69      0.00
                                0.00      0.00    283.69

     nonloc. stress (kbar)   -914.85      0.00     -0.00
                                0.00   -914.85      0.00
                               -0.00      0.00   -914.85

     hartree stress (kbar)   1269.25      0.00      0.00
                                0.00   1269.25      0.00
                                0.00      0.00   1269.25

     exc-cor stress (kbar)  -1112.99     -0.00     -0.00
                               -0.00  -1112.99      0.00
                               -0.00      0.00  -1112.99

     corecor stress (kbar)      0.00      0.00      0.00
                                0.00      0.00      0.00
                                0.00      0.00      0.00

     ewald   stress (kbar)  -1710.55     -0.00     -0.00
                               -0.00  -1710.55     -0.00
                               -0.00     -0.00  -1710.55

     hubbard stress (kbar)      0.00      0.00      0.00
                                0.00      0.00      0.00
                                0.00      0.00      0.00

     DFT-D   stress (kbar)      0.00      0.00      0.00
                                0.00      0.00      0.00
                                0.00      0.00      0.00

     XDM     stress (kbar)      0.00      0.00      0.00
                                0.00      0.00      0.00
                                0.00      0.00      0.00

     dft-nl  stress (kbar)      0.00      0.00      0.00
                                0.00      0.00      0.00
                                0.00      0.00      0.00

     TS-vdW  stress (kbar)      0.00      0.00      0.00
                                0.00      0.00      0.00
                                0.00      0.00      0.00

     MDB     stress (kbar)      0.00      0.00      0.00
                                0.00      0.00      0.00
                                0.00      0.00      0.00

     3D-RISM stress (kbar)      0.00      0.00      0.00
                                0.00      0.00      0.00
                                0.00      0.00      0.00

     Energy error            =      2.5E-05 Ry
     Gradient error          =      0.0E+00 Ry/Bohr
     Cell gradient error     =      5.2E+00 kbar

     number of scf cycles    =   3
     number of bfgs steps    =   2

     enthalpy           old  =     -14.4716315343 Ry
     enthalpy           new  =     -14.4716564840 Ry

     CASE: enthalpy          _new < enthalpy          _old

     new trust radius        =       0.0056047921 bohr
ibrav =      3
 celldm(1) =      6.56739013
Input lattice vectors:
     0.49752956     0.49752956     0.49752956
    -0.49752956     0.49752956     0.49752956
    -0.49752956    -0.49752956     0.49752956
New lattice vectors in INITIAL alat:
     0.49752956     0.49752956     0.49752956
    -0.49752956     0.49752956     0.49752956
    -0.49752956    -0.49752956     0.49752956
New lattice vectors in NEW alat (for information only):
     0.50000000     0.50000000     0.50000000
    -0.50000000     0.50000000     0.50000000
    -0.50000000    -0.50000000     0.50000000
Discrepancy in bohr =     0.000000    0.000000    0.000000
     new conv_thr            =            1.0E-12 Ry

     new unit-cell volume =    141.62778 a.u.^3 (    20.98707 Ang^3 )
     density =      0.54919 g/cm^3

CELL_PARAMETERS (alat=  6.60000000)
   0.497529555   0.497529555   0.497529555
  -0.497529555   0.497529555   0.497529555
  -0.497529555  -0.497529555   0.497529555

ATOMIC_POSITIONS (crystal)
Li               0.0000000000        0.0000000000        0.0000000000



     Writing config-only to output data dir ./tmp_relax/Li.save/ :
     XML data file
     NEW-OLD atomic charge density approx. for the potential
     New effective cutoffs (rho, wfc):  543.70   70.70

     total cpu time spent up to now is        2.8 secs

     Self-consistent Calculation

     iteration #  1     ecut=    70.00 Ry     beta= 0.30
     Davidson diagonalization with overlap

---- Real-time Memory Report at c_bands before calling an iterative solver
             0 MiB given to the printing process from OS
             0 MiB allocation reported by mallinfo(arena+hblkhd)
             0 MiB available memory on the node where the printing process lives
------------------
     ethr =  1.00E-06,  avg # of iterations =  2.1

     Threshold (ethr) on eigenvalues was too large:
     Diagonalizing with lowered threshold

     Davidson diagonalization with overlap

---- Real-time Memory Report at c_bands before calling an iterative solver
             0 MiB given to the printing process from OS
             0 MiB allocation reported by mallinfo(arena+hblkhd)
             0 MiB available memory on the node where the printing process lives
------------------
     ethr =  1.31E-10,  avg # of iterations =  3.9

     total cpu time spent up to now is        3.1 secs

     total energy              =     -14.47168889 Ry
     estimated scf accuracy    <          2.7E-09 Ry

     iteration #  2     ecut=    70.00 Ry     beta= 0.30
     Davidson diagonalization with overlap

---- Real-time Memory Report at c_bands before calling an iterative solver
             0 MiB given to the printing process from OS
             0 MiB allocation reported by mallinfo(arena+hblkhd)
             0 MiB available memory on the node where the printing process lives
------------------
     ethr =  9.13E-11,  avg # of iterations =  1.0

     total cpu time spent up to now is        3.2 secs

     total energy              =     -14.47168890 Ry
     estimated scf accuracy    <          1.3E-09 Ry

     iteration #  3     ecut=    70.00 Ry     beta= 0.30
     Davidson diagonalization with overlap

---- Real-time Memory Report at c_bands before calling an iterative solver
             0 MiB given to the printing process from OS
             0 MiB allocation reported by mallinfo(arena+hblkhd)
             0 MiB available memory on the node where the printing process lives
------------------
     ethr =  4.37E-11,  avg # of iterations =  1.0

     total cpu time spent up to now is        3.3 secs

     total energy              =     -14.47168890 Ry
     estimated scf accuracy    <          2.5E-12 Ry

     iteration #  4     ecut=    70.00 Ry     beta= 0.30
     Davidson diagonalization with overlap

---- Real-time Memory Report at c_bands before calling an iterative solver
             0 MiB given to the printing process from OS
             0 MiB allocation reported by mallinfo(arena+hblkhd)
             0 MiB available memory on the node where the printing process lives
------------------
     ethr =  1.00E-13,  avg # of iterations =  4.0

     total cpu time spent up to now is        3.4 secs

     End of self-consistent calculation

          k = 0.0000 0.0000 0.0000 (  1433 PWs)   bands (ev):

   -45.7396  -2.6922  15.0838  15.0838  15.0838  19.7950

     occupation numbers 
     1.0000   1.0000   0.0000   0.0000   0.0000   0.0000

          k = 0.0000-0.0837 0.0837 (  1443 PWs)   bands (ev):

   -45.7385  -2.5622  14.2111  14.4810  14.8630  18.2251

     occupation numbers 
     1.0000   1.0000   0.0000   0.0000   0.0000   0.0000

          k = 0.0000-0.1675 0.1675 (  1431 PWs)   bands (ev):

   -45.7354  -2.1719  11.9225  13.3744  14.2755  16.9209

     occupation numbers 
     1.0000   1.0000   0.0000   0.0000   0.0000   0.0000

          k =-0.0000-0.2512 0.2512 (  1428 PWs)   bands (ev):

   -45.7312  -1.5227   9.3196  12.3547  13.5587  15.7254

     occupation numbers 
     1.0000   1.0000   0.0000   0.0000   0.0000   0.0000

          k = 0.0000-0.3350 0.3350 (  1422 PWs)   bands (ev):

   -45.7270  -0.6296   6.9219  11.5843  12.9401  14.8676

     occupation numbers 
     1.0000   1.0000   0.0000   0.0000   0.0000   0.0000

          k =-0.0000-0.4187 0.4187 (  1424 PWs)   bands (ev):

   -45.7239   0.4207   4.9436  11.1113  12.5376  14.3519

     occupation numbers 
     1.0000   1.0012   0.0000   0.0000   0.0000   0.0000

          k = 0.0000 0.5025-0.5025 (  1416 PWs)   bands (ev):

   -45.7228   1.0880   3.9637  10.9522  12.3992  14.1799

     occupation numbers 
     1.0000   0.0007   0.0000   0.0000   0.0000   0.0000

          k =-0.0837-0.0837 0.1675 (  1443 PWs)   bands (ev):

   -45.7364  -2.3019  13.1389  13.1520  14.1767  17.4796

     occupation numbers 
     1.0000   1.0000   0.0000   0.0000   0.0000   0.0000

          k =-0.0837-0.1675 0.2512 (  1422 PWs)   bands (ev):

   -45.7327  -1.7810  10.6422  12.0826  13.3040  17.1334

     occupation numbers 
     1.0000   1.0000   0.0000   0.0000   0.0000   0.0000

          k =-0.0837-0.2512 0.3350 (  1428 PWs)   bands (ev):

   -45.7285  -1.0042   8.1228  11.2185  12.5133  16.4774

     occupation numbers 
     1.0000   1.0000   0.0000   0.0000   0.0000   0.0000

          k =-0.0837-0.3350 0.4187 (  1420 PWs)   bands (ev):

   -45.7249  -0.0054   5.9065  10.6216  11.9411  15.9413

     occupation numbers 
     1.0000   1.0000   0.0000   0.0000   0.0000   0.0000

          k =-0.0837 0.5862-0.5025 (  1416 PWs)   bands (ev):

   -45.7228   1.0041   4.2771  10.3182  11.6451  15.6558

     occupation numbers 
     1.0000   0.0122   0.0000   0.0000   0.0000   0.0000

          k =-0.1675-0.1675 0.3350 (  1423 PWs)   bands (ev):

   -45.7291  -1.1290   9.1218  10.2056  12.4782  17.2376

     occupation numbers 
     1.0000   1.0000   0.0000   0.0000   0.0000   0.0000

          k =-0.1675-0.2512 0.4187 (  1413 PWs)   bands (ev):

   -45.7254  -0.2255   6.9978   9.2459  11.8623  17.3352

     occupation numbers 
     1.0000   1.0000   0.0000   0.0000   0.0000   0.0000

          k =-0.1675 0.6700-0.5025 (  1420 PWs)   bands (ev):

   -45.7228   0.8612   5.0504   8.7555  11.4729  17.2705

     occupation numbers 
     1.0000   0.2844   0.0000   0.0000   0.0000   0.0000

          k =-0.1675 0.5862-0.4187 (  1420 PWs)   bands (ev):

   -45.7218   1.5984   4.0166   8.5963  11.3399  17.2202

     occupation numbers 
     1.0000   0.0000   0.0000   0.0000   0.0000   0.0000

          k =-0.2512 0.7537-0.5025 (  1417 PWs)   bands (ev):

   -45.7228   0.7988   5.6540   7.8456  11.4573  17.9465

     occupation numbers 
     1.0000   0.6015   0.0000   0.0000   0.0000   0.0000

          k =-0.2512 0.6700-0.4187 (  1427 PWs)   bands (ev):

   -45.7213   1.9389   4.1957   7.2798  11.2485  18.3288

     occupation numbers 
     1.0000   0.0000   0.0000   0.0000   0.0000   0.0000

          k =-0.3350 0.6700-0.3350 (  1421 PWs)   bands (ev):

   -45.7207   3.1258   3.1258   6.7346  11.1743  19.5706

     occupation numbers 
     1.0000   0.0000   0.0000   0.0000   0.0000   0.0000

          k =-0.0000 0.0000 0.1675 (  1441 PWs)   bands (ev):

   -45.7374  -2.4317  13.7965  13.7965  14.5436  17.0972

     occupation numbers 
     1.0000   1.0000   0.0000   0.0000   0.0000   0.0000

          k =-0.0000-0.0837 0.2512 (  1432 PWs)   bands (ev):

   -45.7344  -2.0398  11.8872  12.6130  14.1006  15.9981

     occupation numbers 
     1.0000   1.0000   0.0000   0.0000   0.0000   0.0000

          k =-0.0000-0.1675 0.3350 (  1419 PWs)   bands (ev):

   -45.7302  -1.3878   9.3735  11.5547  13.4792  15.9469

     occupation numbers 
     1.0000   1.0000   0.0000   0.0000   0.0000   0.0000

          k =-0.0000-0.2512 0.4187 (  1417 PWs)   bands (ev):

   -45.7261  -0.4896   6.9987  10.7644  12.8952  16.0220

     occupation numbers 
     1.0000   1.0000   0.0000   0.0000   0.0000   0.0000

          k =-0.0000-0.3350 0.5025 (  1418 PWs)   bands (ev):

   -45.7231   0.5723   5.0197  10.2816  12.5095  15.5189

     occupation numbers 
     1.0000   1.0466   0.0000   0.0000   0.0000   0.0000

          k =-0.0000 0.5862-0.4187 (  1422 PWs)   bands (ev):

   -45.7220   1.2571   4.0254  10.1196  12.3765  15.3506

     occupation numbers 
     1.0000   0.0000   0.0000   0.0000   0.0000   0.0000

          k =-0.0837-0.0837 0.3350 (  1422 PWs)   bands (ev):

   -45.7309  -1.5151  10.4543  10.9838  13.7063  15.1752

     occupation numbers 
     1.0000   1.0000   0.0000   0.0000   0.0000   0.0000

          k =-0.0837-0.1675 0.4187 (  1420 PWs)   bands (ev):

   -45.7268  -0.7317   8.2025   9.9630  13.1821  15.2526

     occupation numbers 
     1.0000   1.0000   0.0000   0.0000   0.0000   0.0000

          k =-0.0837-0.2512 0.5025 (  1423 PWs)   bands (ev):

   -45.7233   0.2810   6.0378   9.3368  12.6923  15.6987

     occupation numbers 
     1.0000   1.0000   0.0000   0.0000   0.0000   0.0000

          k =-0.0837 0.6700-0.4187 (  1422 PWs)   bands (ev):

   -45.7213   1.3261   4.3948   9.0239  12.4232  15.9783

     occupation numbers 
     1.0000   0.0000   0.0000   0.0000   0.0000   0.0000

          k =-0.1675 0.1675 0.1675 (  1427 PWs)   bands (ev):

   -45.7336  -1.9118  11.9845  11.9845  12.2567  17.9201

     occupation numbers 
     1.0000   1.0000   0.0000   0.0000   0.0000   0.0000

          k =-0.1675-0.1675 0.5025 (  1428 PWs)   bands (ev):

   -45.7234   0.1802   6.7970   8.4775  12.9521  15.2445

     occupation numbers 
     1.0000   1.0000   0.0000   0.0000   0.0000   0.0000

          k =-0.1675 0.7537-0.4187 (  1423 PWs)   bands (ev):

   -45.7209   1.2948   5.0963   7.7876  12.6930  15.7551

     occupation numbers 
     1.0000   0.0000   0.0000   0.0000   0.0000   0.0000

          k =-0.1675 0.6700-0.3350 (  1421 PWs)   bands (ev):

   -45.7200   2.1043   4.0476   7.5920  12.5860  16.1061

     occupation numbers 
     1.0000   0.0000   0.0000   0.0000   0.0000   0.0000

          k =-0.2512 0.2512 0.1675 (  1419 PWs)   bands (ev):

   -45.7299  -1.2613   9.4201  10.9416  11.4200  18.0959

     occupation numbers 
     1.0000   1.0000   0.0000   0.0000   0.0000   0.0000

          k =-0.2512 0.7537-0.3350 (  1424 PWs)   bands (ev):

   -45.7196   2.4857   3.9619   6.9301  12.6735  16.4414

     occupation numbers 
     1.0000   0.0000   0.0000   0.0000   0.0000   0.0000

          k =-0.3350 0.3350 0.1675 (  1414 PWs)   bands (ev):

   -45.7262  -0.3612   7.0281  10.1590  10.8077  17.9154

     occupation numbers 
     1.0000   1.0000   0.0000   0.0000   0.0000   0.0000

          k =-0.3350 0.2512 0.2512 (  1417 PWs)   bands (ev):

   -45.7267  -0.4809   8.0022   9.0541  10.7068  19.0110

     occupation numbers 
     1.0000   1.0000   0.0000   0.0000   0.0000   0.0000

          k = 0.5862-0.5862 0.1675 (  1420 PWs)   bands (ev):

   -45.7235   0.7147   5.0316   9.6798  10.4302  17.6537

     occupation numbers 
     1.0000   0.9890   0.0000   0.0000   0.0000   0.0000

          k = 0.5862-0.6700 0.2512 (  1430 PWs)   bands (ev):

   -45.7239   0.5406   6.0264   8.2014  10.2607  19.3773

     occupation numbers 
     1.0000   1.0275   0.0000   0.0000   0.0000   0.0000

          k = 0.5025-0.5025 0.1675 (  1434 PWs)   bands (ev):

   -45.7225   1.4294   4.0068   9.5188  10.3028  17.5464

     occupation numbers 
     1.0000   0.0000   0.0000   0.0000   0.0000   0.0000

          k = 0.5025-0.5862 0.2512 (  1424 PWs)   bands (ev):

   -45.7222   1.6392   4.3608   7.8464  10.0369  19.4074

     occupation numbers 
     1.0000   0.0000   0.0000   0.0000   0.0000   0.0000

          k = 0.5025-0.6700 0.3350 (  1426 PWs)   bands (ev):

   -45.7222   1.6736   4.8231   6.9459   9.9674  20.4541

     occupation numbers 
     1.0000   0.0000   0.0000   0.0000   0.0000   0.0000

          k = 0.4187-0.5862 0.3350 (  1425 PWs)   bands (ev):

   -45.7215   2.6210   3.7804   6.5916   9.8705  20.7259

     occupation numbers 
     1.0000   0.0000   0.0000   0.0000   0.0000   0.0000

          k =-0.0000 0.0000 0.3350 (  1429 PWs)   bands (ev):

   -45.7315  -1.6433  11.3678  11.3678  13.7142  13.9881

     occupation numbers 
     1.0000   1.0000   0.0000   0.0000   0.0000   0.0000

          k =-0.0000-0.0837 0.4187 (  1424 PWs)   bands (ev):

   -45.7276  -0.9830   9.4833  10.2808  13.1240  13.7260

     occupation numbers 
     1.0000   1.0000   0.0000   0.0000   0.0000   0.0000

          k =-0.0000-0.1675 0.5025 (  1418 PWs)   bands (ev):

   -45.7238  -0.0701   7.2292   9.4762  12.6311  14.3381

     occupation numbers 
     1.0000   1.0000   0.0000   0.0000   0.0000   0.0000

          k =-0.0000-0.2512 0.5862 (  1424 PWs)   bands (ev):

   -45.7209   1.0245   5.2599   8.9865  12.3153  15.2527

     occupation numbers 
     1.0000   0.0066   0.0000   0.0000   0.0000   0.0000

          k =-0.0000 0.6700-0.3350 (  1422 PWs)   bands (ev):

   -45.7199   1.7634   4.2225   8.8224  12.2061  15.8867

     occupation numbers 
     1.0000   0.0000   0.0000   0.0000   0.0000   0.0000

          k =-0.0837-0.0837 0.5025 (  1420 PWs)   bands (ev):

   -45.7239  -0.1872   8.1804   8.9678  12.8949  13.3246

     occupation numbers 
     1.0000   1.0000   0.0000   0.0000   0.0000   0.0000

          k =-0.0837-0.1675 0.5862 (  1423 PWs)   bands (ev):

   -45.7207   0.8499   6.2896   8.2145  12.7041  13.8473

     occupation numbers 
     1.0000   0.3343   0.0000   0.0000   0.0000   0.0000

          k =-0.0837 0.7537-0.3350 (  1422 PWs)   bands (ev):

   -45.7188   1.9633   4.6490   7.8819  12.5127  14.8400

     occupation numbers 
     1.0000   0.0000   0.0000   0.0000   0.0000   0.0000

          k =-0.1675 0.8375-0.3350 (  1422 PWs)   bands (ev):

   -45.7184   1.9942   5.1144   7.1839  13.4433  13.6236

     occupation numbers 
     1.0000   0.0000   0.0000   0.0000   0.0000   0.0000

          k =-0.1675 0.7537-0.2512 (  1417 PWs)   bands (ev):

   -45.7176   2.9427   4.0887   6.8776  13.3742  14.5280

     occupation numbers 
     1.0000   0.0000   0.0000   0.0000   0.0000   0.0000

          k = 0.6700-0.6700 0.3350 (  1418 PWs)   bands (ev):

   -45.7242   0.4287   7.1833   7.1833   9.8223  20.4625

     occupation numbers 
     1.0000   1.0015   0.0000   0.0000   0.0000   0.0000

          k = 0.5862-0.5862 0.3350 (  1426 PWs)   bands (ev):

   -45.7225   1.5650   5.2659   6.6871   9.4516  21.2168

     occupation numbers 
     1.0000   0.0000   0.0000   0.0000   0.0000   0.0000

          k = 0.5025-0.5025 0.3350 (  1430 PWs)   bands (ev):

   -45.7218   2.4524   4.1010   6.5211   9.3401  21.4428

     occupation numbers 
     1.0000   0.0000   0.0000   0.0000   0.0000   0.0000

          k = 0.5025-0.5862 0.4187 (  1425 PWs)   bands (ev):

   -45.7217   2.8012   4.3210   5.6264   9.1652  22.3110

     occupation numbers 
     1.0000   0.0000   0.0000   0.0000   0.0000   0.0000

          k = 0.0000 0.0000 0.5025 (  1413 PWs)   bands (ev):

   -45.7241  -0.3089   9.1807   9.1807  11.5690  13.1938

     occupation numbers 
     1.0000   1.0000   0.0000   0.0000   0.0000   0.0000

          k = 0.0000-0.0837 0.5862 (  1421 PWs)   bands (ev):

   -45.7205   0.6262   7.5680   8.3695  11.3147  13.1844

     occupation numbers 
     1.0000   1.0798   0.0000   0.0000   0.0000   0.0000

          k = 0.0000-0.1675 0.6700 (  1414 PWs)   bands (ev):

   -45.7179   1.7688   5.6859   7.8766  11.5189  13.7232

     occupation numbers 
     1.0000   0.0000   0.0000   0.0000   0.0000   0.0000

          k =-0.0000 0.7537-0.2512 (  1420 PWs)   bands (ev):

   -45.7170   2.6024   4.5825   7.7115  11.5830  14.7617

     occupation numbers 
     1.0000   0.0000   0.0000   0.0000   0.0000   0.0000

          k =-0.0837-0.0837 0.6700 (  1415 PWs)   bands (ev):

   -45.7176   1.6923   6.5179   7.4386  11.2141  13.1228

     occupation numbers 
     1.0000   0.0000   0.0000   0.0000   0.0000   0.0000

          k =-0.0837 0.8375-0.2512 (  1409 PWs)   bands (ev):

   -45.7159   2.8958   5.0497   7.0116  11.6408  13.4710

     occupation numbers 
     1.0000   0.0000   0.0000   0.0000   0.0000   0.0000

          k =-0.1675 0.8375-0.1675 (  1412 PWs)   bands (ev):

   -45.7152   4.0993   4.0993   6.5319  12.6259  12.6259

     occupation numbers 
     1.0000   0.0000   0.0000   0.0000   0.0000   0.0000

          k = 0.5025-0.5025 0.5025 (  1436 PWs)   bands (ev):

   -45.7215   4.1531   4.1531   4.1531   8.9464  23.8980

     occupation numbers 
     1.0000   0.0000   0.0000   0.0000   0.0000   0.0000

          k =-0.0000 0.0000 0.6700 (  1417 PWs)   bands (ev):

   -45.7173   1.5910   7.5550   7.5550   9.8407  12.8546

     occupation numbers 
     1.0000   0.0000   0.0000   0.0000   0.0000   0.0000

          k =-0.0000-0.0837 0.7537 (  1412 PWs)   bands (ev):

   -45.7149   2.7872   6.2705   7.0604   9.9672  12.5573

     occupation numbers 
     1.0000   0.0000   0.0000   0.0000   0.0000   0.0000

          k =-0.0000 0.8375-0.1675 (  1412 PWs)   bands (ev):

   -45.7141   3.7603   5.1243   6.8948  10.3939  12.2908

     occupation numbers 
     1.0000   0.0000   0.0000   0.0000   0.0000   0.0000

          k =-0.0837 0.9212-0.1675 (  1411 PWs)   bands (ev):

   -45.7134   4.0634   5.5114   6.5104  10.1968  11.4790

     occupation numbers 
     1.0000   0.0000   0.0000   0.0000   0.0000   0.0000

          k = 0.0000-0.0000 0.8375 (  1408 PWs)   bands (ev):

   -45.7128   4.0380   6.5651   6.5651   8.8037  11.0271

     occupation numbers 
     1.0000   0.0000   0.0000   0.0000   0.0000   0.0000

          k = 0.0000 0.9212-0.0837 (  1428 PWs)   bands (ev):

   -45.7120   5.1748   5.8009   6.3992   9.1181   9.8567

     occupation numbers 
     1.0000   0.0000   0.0000   0.0000   0.0000   0.0000

          k = 0.0000-0.0000-1.0050 (  1464 PWs)   bands (ev):

   -45.7112   6.2333   6.2333   6.2333   8.4580   8.4580

     occupation numbers 
     1.0000   0.0000   0.0000   0.0000   0.0000   0.0000

     the Fermi energy is     0.8362 ev

!    total energy              =     -14.47168891 Ry
     estimated scf accuracy    <          8.3E-14 Ry
     smearing contrib. (-TS)   =      -0.00010048 Ry
     internal energy E=F+TS    =     -14.47158842 Ry

     The total energy is F=E-TS. E is the sum of the following terms:
     one-electron contribution =      -9.79890430 Ry
     hartree contribution      =       3.68679622 Ry
     xc contribution           =      -3.37224791 Ry
     ewald contribution        =      -4.98723243 Ry

     convergence has been achieved in   4 iterations

     Forces acting on atoms (cartesian axes, Ry/au):

     atom    1 type  1   force =     0.00000000    0.00000000    0.00000000
     The non-local contrib.  to forces
     atom    1 type  1   force =     0.00000000   -0.00000000   -0.00000000
     The ionic contribution  to forces
     atom    1 type  1   force =    -0.00000000   -0.00000000   -0.00000000
     The local contribution  to forces
     atom    1 type  1   force =     0.00000000    0.00000000   -0.00000000
     The core correction contribution to forces
     atom    1 type  1   force =     0.00000000    0.00000000    0.00000000
     The Hubbard contrib.    to forces
     atom    1 type  1   force =     0.00000000    0.00000000    0.00000000
     The SCF correction term to forces
     atom    1 type  1   force =    -0.00000000   -0.00000000    0.00000000

     Total force =     0.000000     Total SCF correction =     0.000000


     Computing stress (Cartesian axis) and pressure

          total   stress  (Ry/bohr**3)                   (kbar)     P=       -4.33
  -0.00002942   0.00000000  -0.00000000           -4.33        0.00       -0.00
   0.00000000  -0.00002942   0.00000000            0.00       -4.33        0.00
  -0.00000000   0.00000000  -0.00002942           -0.00        0.00       -4.33

     kinetic stress (kbar)   2196.88      0.00     -0.00
                                0.00   2196.88      0.00
                               -0.00      0.00   2196.88

     local   stress (kbar)    291.38      0.00     -0.00
                                0.00    291.38      0.00
                               -0.00      0.00    291.38

     nonloc. stress (kbar)   -921.18     -0.00      0.00
                               -0.00   -921.18     -0.00
                                0.00     -0.00   -921.18

     hartree stress (kbar)   1276.46     -0.00     -0.00
                               -0.00   1276.46     -0.00
                               -0.00     -0.00   1276.46

     exc-cor stress (kbar)  -1121.17      0.00     -0.00
                                0.00  -1121.17      0.00
                               -0.00      0.00  -1121.17

     corecor stress (kbar)      0.00      0.00      0.00
                                0.00      0.00      0.00
                                0.00      0.00      0.00

     ewald   stress (kbar)  -1726.70      0.00     -0.00
                                0.00  -1726.70     -0.00
                               -0.00     -0.00  -1726.70

     hubbard stress (kbar)      0.00      0.00      0.00
                                0.00      0.00      0.00
                                0.00      0.00      0.00

     DFT-D   stress (kbar)      0.00      0.00      0.00
                                0.00      0.00      0.00
                                0.00      0.00      0.00

     XDM     stress (kbar)      0.00      0.00      0.00
                                0.00      0.00      0.00
                                0.00      0.00      0.00

     dft-nl  stress (kbar)      0.00      0.00      0.00
                                0.00      0.00      0.00
                                0.00      0.00      0.00

     TS-vdW  stress (kbar)      0.00      0.00      0.00
                                0.00      0.00      0.00
                                0.00      0.00      0.00

     MDB     stress (kbar)      0.00      0.00      0.00
                                0.00      0.00      0.00
                                0.00      0.00      0.00

     3D-RISM stress (kbar)      0.00      0.00      0.00
                                0.00      0.00      0.00
                                0.00      0.00      0.00

     Energy error            =      3.2E-05 Ry
     Gradient error          =      0.0E+00 Ry/Bohr
     Cell gradient error     =      4.3E+00 kbar

     number of scf cycles    =   4
     number of bfgs steps    =   3

     enthalpy           old  =     -14.4716564840 Ry
     enthalpy           new  =     -14.4716889090 Ry

     CASE: enthalpy          _new < enthalpy          _old

     new trust radius        =       0.0083973185 bohr
ibrav =      3
 celldm(1) =      6.54421996
Input lattice vectors:
     0.49577424     0.49577424     0.49577424
    -0.49577424     0.49577424     0.49577424
    -0.49577424    -0.49577424     0.49577424
New lattice vectors in INITIAL alat:
     0.49577424     0.49577424     0.49577424
    -0.49577424     0.49577424     0.49577424
    -0.49577424    -0.49577424     0.49577424
New lattice vectors in NEW alat (for information only):
     0.50000000     0.50000000     0.50000000
    -0.50000000     0.50000000     0.50000000
    -0.50000000    -0.50000000     0.50000000
Discrepancy in bohr =     0.000000    0.000000    0.000000
     new conv_thr            =            1.0E-12 Ry

     new unit-cell volume =    140.13405 a.u.^3 (    20.76572 Ang^3 )
     density =      0.55504 g/cm^3

CELL_PARAMETERS (alat=  6.60000000)
   0.495774239   0.495774239   0.495774239
  -0.495774239   0.495774239   0.495774239
  -0.495774239  -0.495774239   0.495774239

ATOMIC_POSITIONS (crystal)
Li               0.0000000000        0.0000000000        0.0000000000



     Writing config-only to output data dir ./tmp_relax/Li.save/ :
     XML data file
     NEW-OLD atomic charge density approx. for the potential
     New effective cutoffs (rho, wfc):  547.56   71.20

     total cpu time spent up to now is        3.5 secs

     Self-consistent Calculation

     iteration #  1     ecut=    70.00 Ry     beta= 0.30
     Davidson diagonalization with overlap

---- Real-time Memory Report at c_bands before calling an iterative solver
             0 MiB given to the printing process from OS
             0 MiB allocation reported by mallinfo(arena+hblkhd)
             0 MiB available memory on the node where the printing process lives
------------------
     ethr =  1.00E-06,  avg # of iterations =  3.0

     Threshold (ethr) on eigenvalues was too large:
     Diagonalizing with lowered threshold

     Davidson diagonalization with overlap

---- Real-time Memory Report at c_bands before calling an iterative solver
             0 MiB given to the printing process from OS
             0 MiB allocation reported by mallinfo(arena+hblkhd)
             0 MiB available memory on the node where the printing process lives
------------------
     ethr =  2.03E-10,  avg # of iterations =  3.2

     total cpu time spent up to now is        3.7 secs

     total energy              =     -14.47172605 Ry
     estimated scf accuracy    <          6.6E-09 Ry

     iteration #  2     ecut=    70.00 Ry     beta= 0.30
     Davidson diagonalization with overlap

---- Real-time Memory Report at c_bands before calling an iterative solver
             0 MiB given to the printing process from OS
             0 MiB allocation reported by mallinfo(arena+hblkhd)
             0 MiB available memory on the node where the printing process lives
------------------
     ethr =  2.19E-10,  avg # of iterations =  1.0

     total cpu time spent up to now is        3.8 secs

     total energy              =     -14.47172607 Ry
     estimated scf accuracy    <          3.1E-09 Ry

     iteration #  3     ecut=    70.00 Ry     beta= 0.30
     Davidson diagonalization with overlap

---- Real-time Memory Report at c_bands before calling an iterative solver
             0 MiB given to the printing process from OS
             0 MiB allocation reported by mallinfo(arena+hblkhd)
             0 MiB available memory on the node where the printing process lives
------------------
     ethr =  1.04E-10,  avg # of iterations =  1.0

     total cpu time spent up to now is        3.9 secs

     total energy              =     -14.47172609 Ry
     estimated scf accuracy    <          6.7E-12 Ry

     iteration #  4     ecut=    70.00 Ry     beta= 0.30
     Davidson diagonalization with overlap

---- Real-time Memory Report at c_bands before calling an iterative solver
             0 MiB given to the printing process from OS
             0 MiB allocation reported by mallinfo(arena+hblkhd)
             0 MiB available memory on the node where the printing process lives
------------------
     ethr =  2.22E-13,  avg # of iterations =  4.0

     total cpu time spent up to now is        4.1 secs

     total energy              =     -14.47172609 Ry
     estimated scf accuracy    <          1.4E-12 Ry

     iteration #  5     ecut=    70.00 Ry     beta= 0.30
     Davidson diagonalization with overlap

---- Real-time Memory Report at c_bands before calling an iterative solver
             0 MiB given to the printing process from OS
             0 MiB allocation reported by mallinfo(arena+hblkhd)
             0 MiB available memory on the node where the printing process lives
------------------
     ethr =  1.00E-13,  avg # of iterations =  1.0

     total cpu time spent up to now is        4.2 secs

     End of self-consistent calculation

          k = 0.0000 0.0000 0.0000 (  1433 PWs)   bands (ev):

   -45.6894  -2.6741  15.2252  15.2252  15.2252  19.9577

     occupation numbers 
     1.0000   1.0000   0.0000   0.0000   0.0000   0.0000

          k = 0.0000-0.0840 0.0840 (  1443 PWs)   bands (ev):

   -45.6882  -2.5436  14.3446  14.6165  15.0018  18.3758

     occupation numbers 
     1.0000   1.0000   0.0000   0.0000   0.0000   0.0000

          k = 0.0000-0.1681 0.1681 (  1431 PWs)   bands (ev):

   -45.6850  -2.1518  12.0368  13.5004  14.4079  17.0614

     occupation numbers 
     1.0000   1.0000   0.0000   0.0000   0.0000   0.0000

          k =-0.0000-0.2521 0.2521 (  1428 PWs)   bands (ev):

   -45.6806  -1.5000   9.4149  12.4726  13.6841  15.8573

     occupation numbers 
     1.0000   1.0000   0.0000   0.0000   0.0000   0.0000

          k = 0.0000-0.3362 0.3362 (  1422 PWs)   bands (ev):

   -45.6762  -0.6034   7.0017  11.6963  13.0599  14.9933

     occupation numbers 
     1.0000   1.0000   0.0000   0.0000   0.0000   0.0000

          k =-0.0000-0.4202 0.4202 (  1424 PWs)   bands (ev):

   -45.6730   0.4502   5.0128  11.2198  12.6539  14.4740

     occupation numbers 
     1.0000   1.0010   0.0000   0.0000   0.0000   0.0000

          k = 0.0000 0.5043-0.5043 (  1416 PWs)   bands (ev):

   -45.6719   1.1179   4.0301  11.0595  12.5143  14.3008

     occupation numbers 
     1.0000   0.0008   0.0000   0.0000   0.0000   0.0000

          k =-0.0840-0.0840 0.1681 (  1443 PWs)   bands (ev):

   -45.6860  -2.2823  13.2602  13.2785  14.3083  17.6272

     occupation numbers 
     1.0000   1.0000   0.0000   0.0000   0.0000   0.0000

          k =-0.0840-0.1681 0.2521 (  1422 PWs)   bands (ev):

   -45.6822  -1.7593  10.7458  12.1994  13.4273  17.2809

     occupation numbers 
     1.0000   1.0000   0.0000   0.0000   0.0000   0.0000

          k =-0.0840-0.2521 0.3362 (  1428 PWs)   bands (ev):

   -45.6778  -0.9794   8.2092  11.3288  12.6298  16.6195

     occupation numbers 
     1.0000   1.0000   0.0000   0.0000   0.0000   0.0000

          k =-0.0840-0.3362 0.4202 (  1420 PWs)   bands (ev):

   -45.6741   0.0233   5.9795  10.7274  12.0529  16.0790

     occupation numbers 
     1.0000   1.0000   0.0000   0.0000   0.0000   0.0000

          k =-0.0840 0.5883-0.5043 (  1416 PWs)   bands (ev):

   -45.6719   1.0350   4.3429  10.4218  11.7545  15.7912

     occupation numbers 
     1.0000   0.0130   0.0000   0.0000   0.0000   0.0000

          k =-0.1681-0.1681 0.3362 (  1423 PWs)   bands (ev):

   -45.6784  -1.1045   9.2104  10.3126  12.5958  17.3844

     occupation numbers 
     1.0000   1.0000   0.0000   0.0000   0.0000   0.0000

          k =-0.1681-0.2521 0.4202 (  1413 PWs)   bands (ev):

   -45.6746  -0.1972   7.0733   9.3454  11.9758  17.4855

     occupation numbers 
     1.0000   1.0000   0.0000   0.0000   0.0000   0.0000

          k =-0.1681 0.6723-0.5043 (  1420 PWs)   bands (ev):

   -45.6719   0.8935   5.1154   8.8509  11.5838  17.4232

     occupation numbers 
     1.0000   0.2869   0.0000   0.0000   0.0000   0.0000

          k =-0.1681 0.5883-0.4202 (  1420 PWs)   bands (ev):

   -45.6708   1.6320   4.0783   8.6904  11.4500  17.3731

     occupation numbers 
     1.0000   0.0000   0.0000   0.0000   0.0000   0.0000

          k =-0.2521 0.7564-0.5043 (  1417 PWs)   bands (ev):

   -45.6719   0.8317   5.7170   7.9400  11.5693  18.0976

     occupation numbers 
     1.0000   0.6019   0.0000   0.0000   0.0000   0.0000

          k =-0.2521 0.6723-0.4202 (  1427 PWs)   bands (ev):

   -45.6703   1.9764   4.2504   7.3711  11.3597  18.4866

     occupation numbers 
     1.0000   0.0000   0.0000   0.0000   0.0000   0.0000

          k =-0.3362 0.6723-0.3362 (  1421 PWs)   bands (ev):

   -45.6697   3.1704   3.1704   6.8259  11.2857  19.7329

     occupation numbers 
     1.0000   0.0000   0.0000   0.0000   0.0000   0.0000

          k =-0.0000 0.0000 0.1681 (  1441 PWs)   bands (ev):

   -45.6871  -2.4126  13.9252  13.9252  14.6821  17.2369

     occupation numbers 
     1.0000   1.0000   0.0000   0.0000   0.0000   0.0000

          k =-0.0000-0.0840 0.2521 (  1432 PWs)   bands (ev):

   -45.6839  -2.0192  12.0004  12.7317  14.2350  16.1326

     occupation numbers 
     1.0000   1.0000   0.0000   0.0000   0.0000   0.0000

          k =-0.0000-0.1681 0.3362 (  1419 PWs)   bands (ev):

   -45.6796  -1.3644   9.4685  11.6651  13.6072  16.0846

     occupation numbers 
     1.0000   1.0000   0.0000   0.0000   0.0000   0.0000

          k =-0.0000-0.2521 0.4202 (  1417 PWs)   bands (ev):

   -45.6753  -0.4625   7.0782  10.8688  13.0178  16.1578

     occupation numbers 
     1.0000   1.0000   0.0000   0.0000   0.0000   0.0000

          k =-0.0000-0.3362 0.5043 (  1418 PWs)   bands (ev):

   -45.6722   0.6029   5.0885  10.3824  12.6288  15.6512

     occupation numbers 
     1.0000   1.0451   0.0000   0.0000   0.0000   0.0000

          k = 0.0000 0.5883-0.4202 (  1422 PWs)   bands (ev):

   -45.6710   1.2883   4.0912  10.2191  12.4947  15.4816

     occupation numbers 
     1.0000   0.0000   0.0000   0.0000   0.0000   0.0000

          k =-0.0840-0.0840 0.3362 (  1422 PWs)   bands (ev):

   -45.6803  -1.4923  10.5538  11.0932  13.8375  15.3041

     occupation numbers 
     1.0000   1.0000   0.0000   0.0000   0.0000   0.0000

          k =-0.0840-0.1681 0.4202 (  1420 PWs)   bands (ev):

   -45.6761  -0.7055   8.2873  10.0646  13.3075  15.3838

     occupation numbers 
     1.0000   1.0000   0.0000   0.0000   0.0000   0.0000

          k =-0.0840-0.2521 0.5043 (  1423 PWs)   bands (ev):

   -45.6724   0.3114   6.1097   9.4336  12.8129  15.8356

     occupation numbers 
     1.0000   1.0000   0.0000   0.0000   0.0000   0.0000

          k =-0.0840 0.6723-0.4202 (  1422 PWs)   bands (ev):

   -45.6703   1.3594   4.4593   9.1184  12.5414  16.1198

     occupation numbers 
     1.0000   0.0000   0.0000   0.0000   0.0000   0.0000

          k =-0.1681 0.1681 0.1681 (  1427 PWs)   bands (ev):

   -45.6832  -1.8907  12.0952  12.0952  12.3801  18.0747

     occupation numbers 
     1.0000   1.0000   0.0000   0.0000   0.0000   0.0000

          k =-0.1681-0.1681 0.5043 (  1428 PWs)   bands (ev):

   -45.6725   0.2106   6.8685   8.5741  13.0745  15.3749

     occupation numbers 
     1.0000   1.0000   0.0000   0.0000   0.0000   0.0000

          k =-0.1681 0.7564-0.4202 (  1423 PWs)   bands (ev):

   -45.6699   1.3300   5.1578   7.8804  12.8126  15.8903

     occupation numbers 
     1.0000   0.0000   0.0000   0.0000   0.0000   0.0000

          k =-0.1681 0.6723-0.3362 (  1421 PWs)   bands (ev):

   -45.6690   2.1416   4.1053   7.6833  12.7045  16.2461

     occupation numbers 
     1.0000   0.0000   0.0000   0.0000   0.0000   0.0000

          k =-0.2521 0.2521 0.1681 (  1419 PWs)   bands (ev):

   -45.6793  -1.2375   9.5132  11.0438  11.5382  18.2523

     occupation numbers 
     1.0000   1.0000   0.0000   0.0000   0.0000   0.0000

          k =-0.2521 0.7564-0.3362 (  1424 PWs)   bands (ev):

   -45.6685   2.5268   4.0126   7.0224  12.7927  16.5804

     occupation numbers 
     1.0000   0.0000   0.0000   0.0000   0.0000   0.0000

          k =-0.3362 0.3362 0.1681 (  1414 PWs)   bands (ev):

   -45.6754  -0.3337   7.1058  10.2551  10.9223  18.0691

     occupation numbers 
     1.0000   1.0000   0.0000   0.0000   0.0000   0.0000

          k =-0.3362 0.2521 0.2521 (  1417 PWs)   bands (ev):

   -45.6759  -0.4537   8.0823   9.1463  10.8220  19.1766

     occupation numbers 
     1.0000   1.0000   0.0000   0.0000   0.0000   0.0000

          k = 0.5883-0.5883 0.1681 (  1420 PWs)   bands (ev):

   -45.6726   0.7462   5.0982   9.7722  10.5426  17.8043

     occupation numbers 
     1.0000   0.9935   0.0000   0.0000   0.0000   0.0000

          k = 0.5883-0.6723 0.2521 (  1430 PWs)   bands (ev):

   -45.6730   0.5723   6.0943   8.2874  10.3744  19.5458

     occupation numbers 
     1.0000   1.0268   0.0000   0.0000   0.0000   0.0000

          k = 0.5043-0.5043 0.1681 (  1434 PWs)   bands (ev):

   -45.6715   1.4617   4.0701   9.6099  10.4144  17.6960

     occupation numbers 
     1.0000   0.0000   0.0000   0.0000   0.0000   0.0000

          k = 0.5043-0.5883 0.2521 (  1424 PWs)   bands (ev):

   -45.6713   1.6746   4.4207   7.9296  10.1498  19.5756

     occupation numbers 
     1.0000   0.0000   0.0000   0.0000   0.0000   0.0000

          k = 0.5043-0.6723 0.3362 (  1426 PWs)   bands (ev):

   -45.6712   1.7106   4.8799   7.0277  10.0809  20.6343

     occupation numbers 
     1.0000   0.0000   0.0000   0.0000   0.0000   0.0000

          k = 0.4202-0.5883 0.3362 (  1425 PWs)   bands (ev):

   -45.6705   2.6620   3.8314   6.6719   9.9840  20.9076

     occupation numbers 
     1.0000   0.0000   0.0000   0.0000   0.0000   0.0000

          k =-0.0000 0.0000 0.3362 (  1429 PWs)   bands (ev):

   -45.6810  -1.6209  11.4762  11.4762  13.8513  14.1058

     occupation numbers 
     1.0000   1.0000   0.0000   0.0000   0.0000   0.0000

          k =-0.0000-0.0840 0.4202 (  1424 PWs)   bands (ev):

   -45.6769  -0.9577   9.5776  10.3808  13.2467  13.8545

     occupation numbers 
     1.0000   1.0000   0.0000   0.0000   0.0000   0.0000

          k =-0.0000-0.1681 0.5043 (  1418 PWs)   bands (ev):

   -45.6729  -0.0407   7.3085   9.5702  12.7549  14.4674

     occupation numbers 
     1.0000   1.0000   0.0000   0.0000   0.0000   0.0000

          k = 0.0000-0.2521 0.5883 (  1424 PWs)   bands (ev):

   -45.6699   1.0581   5.3279   9.0768  12.4384  15.3878

     occupation numbers 
     1.0000   0.0064   0.0000   0.0000   0.0000   0.0000

          k =-0.0000 0.6723-0.3362 (  1422 PWs)   bands (ev):

   -45.6688   1.7982   4.2870   8.9115  12.3289  16.0272

     occupation numbers 
     1.0000   0.0000   0.0000   0.0000   0.0000   0.0000

          k =-0.0840-0.0840 0.5043 (  1420 PWs)   bands (ev):

   -45.6730  -0.1581   8.2627   9.0617  13.0070  13.4605

     occupation numbers 
     1.0000   1.0000   0.0000   0.0000   0.0000   0.0000

          k =-0.0840-0.1681 0.5883 (  1423 PWs)   bands (ev):

   -45.6697   0.8838   6.3601   8.3035  12.8255  13.9760

     occupation numbers 
     1.0000   0.3302   0.0000   0.0000   0.0000   0.0000

          k =-0.0840 0.7564-0.3362 (  1422 PWs)   bands (ev):

   -45.6677   2.0011   4.7116   7.9685  12.6356  14.9729

     occupation numbers 
     1.0000   0.0000   0.0000   0.0000   0.0000   0.0000

          k =-0.1681 0.8404-0.3362 (  1422 PWs)   bands (ev):

   -45.6673   2.0337   5.1736   7.2718  13.5768  13.7418

     occupation numbers 
     1.0000   0.0000   0.0000   0.0000   0.0000   0.0000

          k =-0.1681 0.7564-0.2521 (  1417 PWs)   bands (ev):

   -45.6665   2.9860   4.1422   6.9649  13.5032  14.6569

     occupation numbers 
     1.0000   0.0000   0.0000   0.0000   0.0000   0.0000

          k = 0.6723-0.6723 0.3362 (  1418 PWs)   bands (ev):

   -45.6734   0.4600   7.2573   7.2573   9.9407  20.6386

     occupation numbers 
     1.0000   1.0014   0.0000   0.0000   0.0000   0.0000

          k = 0.5883-0.5883 0.3362 (  1426 PWs)   bands (ev):

   -45.6715   1.6016   5.3275   6.7574   9.5704  21.3987

     occupation numbers 
     1.0000   0.0000   0.0000   0.0000   0.0000   0.0000

          k = 0.5043-0.5043 0.3362 (  1430 PWs)   bands (ev):

   -45.6709   2.4921   4.1572   6.5902   9.4589  21.6261

     occupation numbers 
     1.0000   0.0000   0.0000   0.0000   0.0000   0.0000

          k = 0.5043-0.5883 0.4202 (  1425 PWs)   bands (ev):

   -45.6707   2.8444   4.3741   5.6909   9.2855  22.5036

     occupation numbers 
     1.0000   0.0000   0.0000   0.0000   0.0000   0.0000

          k = 0.0000 0.0000 0.5043 (  1413 PWs)   bands (ev):

   -45.6732  -0.2802   9.2723   9.2723  11.6694  13.3344

     occupation numbers 
     1.0000   1.0000   0.0000   0.0000   0.0000   0.0000

          k = 0.0000-0.0840 0.5883 (  1421 PWs)   bands (ev):

   -45.6695   0.6595   7.6479   8.4551  11.4161  13.3250

     occupation numbers 
     1.0000   1.0799   0.0000   0.0000   0.0000   0.0000

          k = 0.0000-0.1681 0.6723 (  1414 PWs)   bands (ev):

   -45.6668   1.8074   5.7541   7.9585  11.6297  13.8597

     occupation numbers 
     1.0000   0.0000   0.0000   0.0000   0.0000   0.0000

          k = 0.0000 0.7564-0.2521 (  1420 PWs)   bands (ev):

   -45.6658   2.6433   4.6462   7.7921  11.6986  14.9052

     occupation numbers 
     1.0000   0.0000   0.0000   0.0000   0.0000   0.0000

          k =-0.0840-0.0840 0.6723 (  1415 PWs)   bands (ev):

   -45.6665   1.7311   6.5880   7.5209  11.3142  13.2633

     occupation numbers 
     1.0000   0.0000   0.0000   0.0000   0.0000   0.0000

          k =-0.0840 0.8404-0.2521 (  1409 PWs)   bands (ev):

   -45.6647   2.9404   5.1112   7.0918  11.7483  13.6014

     occupation numbers 
     1.0000   0.0000   0.0000   0.0000   0.0000   0.0000

          k =-0.1681 0.8404-0.1681 (  1412 PWs)   bands (ev):

   -45.6639   4.1512   4.1512   6.6135  12.7368  12.7368

     occupation numbers 
     1.0000   0.0000   0.0000   0.0000   0.0000   0.0000

          k = 0.5043-0.5043 0.5043 (  1436 PWs)   bands (ev):

   -45.6705   4.2051   4.2051   4.2051   9.0691  24.1021

     occupation numbers 
     1.0000   0.0000   0.0000   0.0000   0.0000   0.0000

          k =-0.0000 0.0000 0.6723 (  1417 PWs)   bands (ev):

   -45.6662   1.6297   7.6345   7.6345   9.9289  12.9965

     occupation numbers 
     1.0000   0.0000   0.0000   0.0000   0.0000   0.0000

          k =-0.0000-0.0840 0.7564 (  1412 PWs)   bands (ev):

   -45.6637   2.8326   6.3408   7.1363  10.0586  12.6850

     occupation numbers 
     1.0000   0.0000   0.0000   0.0000   0.0000   0.0000

          k =-0.0000 0.8404-0.1681 (  1412 PWs)   bands (ev):

   -45.6628   3.8097   5.1887   6.9694  10.4922  12.3993

     occupation numbers 
     1.0000   0.0000   0.0000   0.0000   0.0000   0.0000

          k =-0.0840 0.9245-0.1681 (  1411 PWs)   bands (ev):

   -45.6621   4.1161   5.5742   6.5856  10.2895  11.5839

     occupation numbers 
     1.0000   0.0000   0.0000   0.0000   0.0000   0.0000

          k = 0.0000-0.0000 0.8404 (  1408 PWs)   bands (ev):

   -45.6614   4.0915   6.6372   6.6372   8.8846  11.1304

     occupation numbers 
     1.0000   0.0000   0.0000   0.0000   0.0000   0.0000

          k =-0.0000 0.9245-0.0840 (  1428 PWs)   bands (ev):

   -45.6606   5.2351   5.8680   6.4702   9.2028   9.9470

     occupation numbers 
     1.0000   0.0000   0.0000   0.0000   0.0000   0.0000

          k =-0.0000-0.0000-1.0085 (  1464 PWs)   bands (ev):

   -45.6598   6.3030   6.3030   6.3030   8.5364   8.5364

     occupation numbers 
     1.0000   0.0000   0.0000   0.0000   0.0000   0.0000

     the Fermi energy is     0.8692 ev

!    total energy              =     -14.47172610 Ry
     estimated scf accuracy    <          5.1E-13 Ry
     smearing contrib. (-TS)   =      -0.00010153 Ry
     internal energy E=F+TS    =     -14.47162457 Ry

     The total energy is F=E-TS. E is the sum of the following terms:
     one-electron contribution =      -9.77208074 Ry
     hartree contribution      =       3.67908511 Ry
     xc contribution           =      -3.37373894 Ry
     ewald contribution        =      -5.00489000 Ry

     convergence has been achieved in   5 iterations

     Forces acting on atoms (cartesian axes, Ry/au):

     atom    1 type  1   force =     0.00000000    0.00000000    0.00000000
     The non-local contrib.  to forces
     atom    1 type  1   force =     0.00000000    0.00000000    0.00000000
     The ionic contribution  to forces
     atom    1 type  1   force =    -0.00000000   -0.00000000   -0.00000000
     The local contribution  to forces
     atom    1 type  1   force =     0.00000000    0.00000000   -0.00000000
     The core correction contribution to forces
     atom    1 type  1   force =     0.00000000    0.00000000    0.00000000
     The Hubbard contrib.    to forces
     atom    1 type  1   force =     0.00000000    0.00000000    0.00000000
     The SCF correction term to forces
     atom    1 type  1   force =     0.00000000    0.00000000   -0.00000000

     Total force =     0.000000     Total SCF correction =     0.000000


     Computing stress (Cartesian axis) and pressure

          total   stress  (Ry/bohr**3)                   (kbar)     P=       -2.99
  -0.00002032   0.00000000  -0.00000000           -2.99        0.00       -0.00
   0.00000000  -0.00002032   0.00000000            0.00       -2.99        0.00
  -0.00000000   0.00000000  -0.00002032           -0.00        0.00       -2.99

     kinetic stress (kbar)   2222.16     -0.00      0.00
                               -0.00   2222.16     -0.00
                                0.00     -0.00   2222.16

     local   stress (kbar)    303.14      0.00     -0.00
                                0.00    303.14      0.00
                               -0.00      0.00    303.14

     nonloc. stress (kbar)   -930.77     -0.00      0.00
                               -0.00   -930.77     -0.00
                                0.00     -0.00   -930.77

     hartree stress (kbar)   1287.37     -0.00     -0.00
                               -0.00   1287.37     -0.00
                               -0.00     -0.00   1287.37

     exc-cor stress (kbar)  -1133.60     -0.00      0.00
                               -0.00  -1133.60     -0.00
                                0.00     -0.00  -1133.60

     corecor stress (kbar)      0.00      0.00      0.00
                                0.00      0.00      0.00
                                0.00      0.00      0.00

     ewald   stress (kbar)  -1751.29      0.00     -0.00
                                0.00  -1751.29      0.00
                               -0.00      0.00  -1751.29

     hubbard stress (kbar)      0.00      0.00      0.00
                                0.00      0.00      0.00
                                0.00      0.00      0.00

     DFT-D   stress (kbar)      0.00      0.00      0.00
                                0.00      0.00      0.00
                                0.00      0.00      0.00

     XDM     stress (kbar)      0.00      0.00      0.00
                                0.00      0.00      0.00
                                0.00      0.00      0.00

     dft-nl  stress (kbar)      0.00      0.00      0.00
                                0.00      0.00      0.00
                                0.00      0.00      0.00

     TS-vdW  stress (kbar)      0.00      0.00      0.00
                                0.00      0.00      0.00
                                0.00      0.00      0.00

     MDB     stress (kbar)      0.00      0.00      0.00
                                0.00      0.00      0.00
                                0.00      0.00      0.00

     3D-RISM stress (kbar)      0.00      0.00      0.00
                                0.00      0.00      0.00
                                0.00      0.00      0.00

     Energy error            =      3.7E-05 Ry
     Gradient error          =      0.0E+00 Ry/Bohr
     Cell gradient error     =      3.0E+00 kbar

     number of scf cycles    =   5
     number of bfgs steps    =   4

     enthalpy           old  =     -14.4716889090 Ry
     enthalpy           new  =     -14.4717260984 Ry

     CASE: enthalpy          _new < enthalpy          _old

     new trust radius        =       0.0125737384 bohr
ibrav =      3
 celldm(1) =      6.50946471
Input lattice vectors:
     0.49314127     0.49314127     0.49314127
    -0.49314127     0.49314127     0.49314127
    -0.49314127    -0.49314127     0.49314127
New lattice vectors in INITIAL alat:
     0.49314127     0.49314127     0.49314127
    -0.49314127     0.49314127     0.49314127
    -0.49314127    -0.49314127     0.49314127
New lattice vectors in NEW alat (for information only):
     0.50000000     0.50000000     0.50000000
    -0.50000000     0.50000000     0.50000000
    -0.50000000    -0.50000000     0.50000000
Discrepancy in bohr =     0.000000    0.000000    0.000000
     new conv_thr            =            1.0E-12 Ry

     new unit-cell volume =    137.91320 a.u.^3 (    20.43663 Ang^3 )
     density =      0.56398 g/cm^3

CELL_PARAMETERS (alat=  6.60000000)
   0.493141266   0.493141266   0.493141266
  -0.493141266   0.493141266   0.493141266
  -0.493141266  -0.493141266   0.493141266

ATOMIC_POSITIONS (crystal)
Li               0.0000000000        0.0000000000        0.0000000000



     Writing config-only to output data dir ./tmp_relax/Li.save/ :
     XML data file
     NEW-OLD atomic charge density approx. for the potential
     New effective cutoffs (rho, wfc):  553.42   71.96

     total cpu time spent up to now is        4.3 secs

     Self-consistent Calculation

     iteration #  1     ecut=    70.00 Ry     beta= 0.30
     Davidson diagonalization with overlap

---- Real-time Memory Report at c_bands before calling an iterative solver
             0 MiB given to the printing process from OS
             0 MiB allocation reported by mallinfo(arena+hblkhd)
             0 MiB available memory on the node where the printing process lives
------------------
     ethr =  1.00E-06,  avg # of iterations =  3.0

     Threshold (ethr) on eigenvalues was too large:
     Diagonalizing with lowered threshold

     Davidson diagonalization with overlap

---- Real-time Memory Report at c_bands before calling an iterative solver
             0 MiB given to the printing process from OS
             0 MiB allocation reported by mallinfo(arena+hblkhd)
             0 MiB available memory on the node where the printing process lives
------------------
     ethr =  4.90E-10,  avg # of iterations =  3.1

     total cpu time spent up to now is        4.6 secs

     total energy              =     -14.47175533 Ry
     estimated scf accuracy    <       0.00000002 Ry

     iteration #  2     ecut=    70.00 Ry     beta= 0.30
     Davidson diagonalization with overlap

---- Real-time Memory Report at c_bands before calling an iterative solver
             0 MiB given to the printing process from OS
             0 MiB allocation reported by mallinfo(arena+hblkhd)
             0 MiB available memory on the node where the printing process lives
------------------
     ethr =  5.34E-10,  avg # of iterations =  1.0

     total cpu time spent up to now is        4.7 secs

     total energy              =     -14.47175538 Ry
     estimated scf accuracy    <          7.6E-09 Ry

     iteration #  3     ecut=    70.00 Ry     beta= 0.30
     Davidson diagonalization with overlap

---- Real-time Memory Report at c_bands before calling an iterative solver
             0 MiB given to the printing process from OS
             0 MiB allocation reported by mallinfo(arena+hblkhd)
             0 MiB available memory on the node where the printing process lives
------------------
     ethr =  2.55E-10,  avg # of iterations =  1.0

     total cpu time spent up to now is        4.8 secs

     total energy              =     -14.47175540 Ry
     estimated scf accuracy    <          1.5E-11 Ry

     iteration #  4     ecut=    70.00 Ry     beta= 0.30
     Davidson diagonalization with overlap

---- Real-time Memory Report at c_bands before calling an iterative solver
             0 MiB given to the printing process from OS
             0 MiB allocation reported by mallinfo(arena+hblkhd)
             0 MiB available memory on the node where the printing process lives
------------------
     ethr =  5.09E-13,  avg # of iterations =  4.0

     total cpu time spent up to now is        4.9 secs

     total energy              =     -14.47175542 Ry
     estimated scf accuracy    <          2.9E-12 Ry

     iteration #  5     ecut=    70.00 Ry     beta= 0.30
     Davidson diagonalization with overlap

---- Real-time Memory Report at c_bands before calling an iterative solver
             0 MiB given to the printing process from OS
             0 MiB allocation reported by mallinfo(arena+hblkhd)
             0 MiB available memory on the node where the printing process lives
------------------
     ethr =  1.00E-13,  avg # of iterations =  1.2

     total cpu time spent up to now is        5.0 secs

     End of self-consistent calculation

          k = 0.0000 0.0000 0.0000 (  1433 PWs)   bands (ev):

   -45.6134  -2.6462  15.4401  15.4401  15.4401  20.2051

     occupation numbers 
     1.0000   1.0000   0.0000   0.0000   0.0000   0.0000

          k = 0.0000-0.0845 0.0845 (  1443 PWs)   bands (ev):

   -45.6121  -2.5150  14.5477  14.8226  15.2129  18.6052

     occupation numbers 
     1.0000   1.0000   0.0000   0.0000   0.0000   0.0000

          k = 0.0000-0.1690 0.1690 (  1431 PWs)   bands (ev):

   -45.6087  -2.1208  12.2106  13.6922  14.6093  17.2750

     occupation numbers 
     1.0000   1.0000   0.0000   0.0000   0.0000   0.0000

          k =-0.0000-0.2535 0.2535 (  1428 PWs)   bands (ev):

   -45.6040  -1.4651   9.5601  12.6521  13.8748  16.0579

     occupation numbers 
     1.0000   1.0000   0.0000   0.0000   0.0000   0.0000

          k = 0.0000-0.3380 0.3380 (  1422 PWs)   bands (ev):

   -45.5994  -0.5632   7.1233  11.8668  13.2420  15.1846

     occupation numbers 
     1.0000   1.0000   0.0000   0.0000   0.0000   0.0000

          k =-0.0000-0.4225 0.4225 (  1424 PWs)   bands (ev):

   -45.5959   0.4953   5.1182  11.3848  12.8307  14.6597

     occupation numbers 
     1.0000   1.0009   0.0000   0.0000   0.0000   0.0000

          k = 0.0000 0.5070-0.5070 (  1416 PWs)   bands (ev):

   -45.5947   1.1635   4.1313  11.2227  12.6894  14.4846

     occupation numbers 
     1.0000   0.0010   0.0000   0.0000   0.0000   0.0000

          k =-0.0845-0.0845 0.1690 (  1443 PWs)   bands (ev):

   -45.6098  -2.2521  13.4447  13.4709  14.5084  17.8517

     occupation numbers 
     1.0000   1.0000   0.0000   0.0000   0.0000   0.0000

          k =-0.0845-0.1690 0.2535 (  1422 PWs)   bands (ev):

   -45.6058  -1.7260  10.9033  12.3771  13.6147  17.5053

     occupation numbers 
     1.0000   1.0000   0.0000   0.0000   0.0000   0.0000

          k =-0.0845-0.2535 0.3380 (  1428 PWs)   bands (ev):

   -45.6011  -0.9413   8.3407  11.4965  12.8069  16.8356

     occupation numbers 
     1.0000   1.0000   0.0000   0.0000   0.0000   0.0000

          k =-0.0845-0.3380 0.4225 (  1420 PWs)   bands (ev):

   -45.5970   0.0671   6.0906  10.8884  12.2230  16.2884

     occupation numbers 
     1.0000   1.0000   0.0000   0.0000   0.0000   0.0000

          k =-0.0845 0.5914-0.5070 (  1416 PWs)   bands (ev):

   -45.5947   1.0822   4.4432  10.5793  11.9210  15.9972

     occupation numbers 
     1.0000   0.0142   0.0000   0.0000   0.0000   0.0000

          k =-0.1690-0.1690 0.3380 (  1423 PWs)   bands (ev):

   -45.6017  -1.0671   9.3453  10.4753  12.7747  17.6078

     occupation numbers 
     1.0000   1.0000   0.0000   0.0000   0.0000   0.0000

          k =-0.1690-0.2535 0.4225 (  1413 PWs)   bands (ev):

   -45.5977  -0.1540   7.1882   9.4967  12.1486  17.7140

     occupation numbers 
     1.0000   1.0000   0.0000   0.0000   0.0000   0.0000

          k =-0.1690 0.6759-0.5070 (  1420 PWs)   bands (ev):

   -45.5947   0.9429   5.2145   8.9962  11.7527  17.6555

     occupation numbers 
     1.0000   0.2907   0.0000   0.0000   0.0000   0.0000

          k =-0.1690 0.5914-0.4225 (  1420 PWs)   bands (ev):

   -45.5936   1.6831   4.1723   8.8338  11.6176  17.6056

     occupation numbers 
     1.0000   0.0000   0.0000   0.0000   0.0000   0.0000

          k =-0.2535 0.7604-0.5070 (  1417 PWs)   bands (ev):

   -45.5947   0.8818   5.8128   8.0837  11.7398  18.3274

     occupation numbers 
     1.0000   0.6025   0.0000   0.0000   0.0000   0.0000

          k =-0.2535 0.6759-0.4225 (  1427 PWs)   bands (ev):

   -45.5930   2.0336   4.3337   7.5102  11.5290  18.7265

     occupation numbers 
     1.0000   0.0000   0.0000   0.0000   0.0000   0.0000

          k =-0.3380 0.6759-0.3380 (  1421 PWs)   bands (ev):

   -45.5924   3.2383   3.2383   6.9648  11.4552  19.9797

     occupation numbers 
     1.0000   0.0000   0.0000   0.0000   0.0000   0.0000

          k =-0.0000 0.0000 0.1690 (  1441 PWs)   bands (ev):

   -45.6109  -2.3832  14.1211  14.1211  14.8927  17.4495

     occupation numbers 
     1.0000   1.0000   0.0000   0.0000   0.0000   0.0000

          k =-0.0000-0.0845 0.2535 (  1432 PWs)   bands (ev):

   -45.6076  -1.9873  12.1727  12.9123  14.4394  16.3373

     occupation numbers 
     1.0000   1.0000   0.0000   0.0000   0.0000   0.0000

          k =-0.0000-0.1690 0.3380 (  1419 PWs)   bands (ev):

   -45.6030  -1.3286   9.6131  11.8330  13.8018  16.2940

     occupation numbers 
     1.0000   1.0000   0.0000   0.0000   0.0000   0.0000

          k = 0.0000-0.2535 0.4225 (  1417 PWs)   bands (ev):

   -45.5984  -0.4212   7.1994  11.0276  13.2044  16.3645

     occupation numbers 
     1.0000   1.0000   0.0000   0.0000   0.0000   0.0000

          k = 0.0000-0.3380 0.5070 (  1418 PWs)   bands (ev):

   -45.5951   0.6495   5.1933  10.5356  12.8103  15.8523

     occupation numbers 
     1.0000   1.0427   0.0000   0.0000   0.0000   0.0000

          k = 0.0000 0.5914-0.4225 (  1422 PWs)   bands (ev):

   -45.5938   1.3357   4.1915  10.3705  12.6745  15.6810

     occupation numbers 
     1.0000   0.0000   0.0000   0.0000   0.0000   0.0000

          k =-0.0845-0.0845 0.3380 (  1422 PWs)   bands (ev):

   -45.6037  -1.4571  10.7051  11.2596  14.0373  15.5003

     occupation numbers 
     1.0000   1.0000   0.0000   0.0000   0.0000   0.0000

          k =-0.0845-0.1690 0.4225 (  1420 PWs)   bands (ev):

   -45.5992  -0.6653   8.4163  10.2191  13.4982  15.5833

     occupation numbers 
     1.0000   1.0000   0.0000   0.0000   0.0000   0.0000

          k =-0.0845-0.2535 0.5070 (  1423 PWs)   bands (ev):

   -45.5953   0.3578   6.2191   9.5809  12.9964  16.0438

     occupation numbers 
     1.0000   1.0000   0.0000   0.0000   0.0000   0.0000

          k =-0.0845 0.6759-0.4225 (  1422 PWs)   bands (ev):

   -45.5931   1.4101   4.5574   9.2622  12.7212  16.3350

     occupation numbers 
     1.0000   0.0000   0.0000   0.0000   0.0000   0.0000

          k =-0.1690 0.1690 0.1690 (  1427 PWs)   bands (ev):

   -45.6068  -1.8581  12.2636  12.2636  12.5679  18.3100

     occupation numbers 
     1.0000   1.0000   0.0000   0.0000   0.0000   0.0000

          k =-0.1690-0.1690 0.5070 (  1428 PWs)   bands (ev):

   -45.5954   0.2570   6.9773   8.7213  13.2606  15.5731

     occupation numbers 
     1.0000   1.0000   0.0000   0.0000   0.0000   0.0000

          k =-0.1690 0.7604-0.4225 (  1423 PWs)   bands (ev):

   -45.5927   1.3836   5.2514   8.0216  12.9944  16.0961

     occupation numbers 
     1.0000   0.0000   0.0000   0.0000   0.0000   0.0000

          k =-0.1690 0.6759-0.3380 (  1421 PWs)   bands (ev):

   -45.5917   2.1983   4.1931   7.8225  12.8847  16.4591

     occupation numbers 
     1.0000   0.0000   0.0000   0.0000   0.0000   0.0000

          k =-0.2535 0.2535 0.1690 (  1419 PWs)   bands (ev):

   -45.6026  -1.2010   9.6547  11.1992  11.7181  18.4902

     occupation numbers 
     1.0000   1.0000   0.0000   0.0000   0.0000   0.0000

          k =-0.2535 0.7604-0.3380 (  1424 PWs)   bands (ev):

   -45.5911   2.5893   4.0898   7.1631  12.9739  16.7918

     occupation numbers 
     1.0000   0.0000   0.0000   0.0000   0.0000   0.0000

          k =-0.3380 0.3380 0.1690 (  1414 PWs)   bands (ev):

   -45.5985  -0.2915   7.2240  10.4012  11.0969  18.3028

     occupation numbers 
     1.0000   1.0000   0.0000   0.0000   0.0000   0.0000

          k =-0.3380 0.2535 0.2535 (  1417 PWs)   bands (ev):

   -45.5990  -0.4122   8.2042   9.2866  10.9975  19.4285

     occupation numbers 
     1.0000   1.0000   0.0000   0.0000   0.0000   0.0000

          k = 0.5914-0.5914 0.1690 (  1420 PWs)   bands (ev):

   -45.5954   0.7941   5.1997   9.9127  10.7138  18.0335

     occupation numbers 
     1.0000   1.0000   0.0000   0.0000   0.0000   0.0000

          k = 0.5914-0.6759 0.2535 (  1430 PWs)   bands (ev):

   -45.5959   0.6205   6.1978   8.4183  10.5476  19.8021

     occupation numbers 
     1.0000   1.0258   0.0000   0.0000   0.0000   0.0000

          k = 0.5070-0.5070 0.1690 (  1434 PWs)   bands (ev):

   -45.5943   1.5110   4.1665   9.7486  10.5844  17.9234

     occupation numbers 
     1.0000   0.0000   0.0000   0.0000   0.0000   0.0000

          k = 0.5070-0.5914 0.2535 (  1424 PWs)   bands (ev):

   -45.5941   1.7286   4.5119   8.0560  10.3221  19.8313

     occupation numbers 
     1.0000   0.0000   0.0000   0.0000   0.0000   0.0000

          k = 0.5070-0.6759 0.3380 (  1426 PWs)   bands (ev):

   -45.5940   1.7669   4.9665   7.1520  10.2540  20.9083

     occupation numbers 
     1.0000   0.0000   0.0000   0.0000   0.0000   0.0000

          k = 0.4225-0.5914 0.3380 (  1425 PWs)   bands (ev):

   -45.5933   2.7243   3.9091   6.7939  10.1572  21.1840

     occupation numbers 
     1.0000   0.0000   0.0000   0.0000   0.0000   0.0000

          k =-0.0000 0.0000 0.3380 (  1429 PWs)   bands (ev):

   -45.6044  -1.5865  11.6411  11.6411  14.0599  14.2847

     occupation numbers 
     1.0000   1.0000   0.0000   0.0000   0.0000   0.0000

          k = 0.0000-0.0845 0.4225 (  1424 PWs)   bands (ev):

   -45.6001  -0.9188   9.7210  10.5330  13.4329  14.0508

     occupation numbers 
     1.0000   1.0000   0.0000   0.0000   0.0000   0.0000

          k =-0.0000-0.1690 0.5070 (  1418 PWs)   bands (ev):

   -45.5958   0.0042   7.4291   9.7131  12.9432  14.6642

     occupation numbers 
     1.0000   1.0000   0.0000   0.0000   0.0000   0.0000

          k = 0.0000-0.2535 0.5914 (  1424 PWs)   bands (ev):

   -45.5926   1.1094   5.4316   9.2142  12.6258  15.5932

     occupation numbers 
     1.0000   0.0062   0.0000   0.0000   0.0000   0.0000

          k = 0.0000 0.6759-0.3380 (  1422 PWs)   bands (ev):

   -45.5915   1.8512   4.3854   9.0470  12.5158  16.2410

     occupation numbers 
     1.0000   0.0000   0.0000   0.0000   0.0000   0.0000

          k =-0.0845-0.0845 0.5070 (  1420 PWs)   bands (ev):

   -45.5960  -0.1137   8.3880   9.2045  13.1777  13.6674

     occupation numbers 
     1.0000   1.0000   0.0000   0.0000   0.0000   0.0000

          k =-0.0845-0.1690 0.5914 (  1423 PWs)   bands (ev):

   -45.5924   0.9354   6.4674   8.4390  13.0099  14.1719

     occupation numbers 
     1.0000   0.3239   0.0000   0.0000   0.0000   0.0000

          k =-0.0845 0.7604-0.3380 (  1422 PWs)   bands (ev):

   -45.5903   2.0588   4.8069   8.1002  12.8226  15.1753

     occupation numbers 
     1.0000   0.0000   0.0000   0.0000   0.0000   0.0000

          k =-0.1690 0.8449-0.3380 (  1422 PWs)   bands (ev):

   -45.5899   2.0938   5.2638   7.4058  13.7800  13.9217

     occupation numbers 
     1.0000   0.0000   0.0000   0.0000   0.0000   0.0000

          k =-0.1690 0.7604-0.2535 (  1417 PWs)   bands (ev):

   -45.5890   3.0520   4.2238   7.0979  13.6993  14.8530

     occupation numbers 
     1.0000   0.0000   0.0000   0.0000   0.0000   0.0000

          k = 0.6759-0.6759 0.3380 (  1418 PWs)   bands (ev):

   -45.5963   0.5078   7.3698   7.3698  10.1212  20.9065

     occupation numbers 
     1.0000   1.0013   0.0000   0.0000   0.0000   0.0000

          k = 0.5914-0.5914 0.3380 (  1426 PWs)   bands (ev):

   -45.5943   1.6574   5.4212   6.8644   9.7515  21.6755

     occupation numbers 
     1.0000   0.0000   0.0000   0.0000   0.0000   0.0000

          k = 0.5070-0.5070 0.3380 (  1430 PWs)   bands (ev):

   -45.5936   2.5525   4.2427   6.6953   9.6401  21.9050

     occupation numbers 
     1.0000   0.0000   0.0000   0.0000   0.0000   0.0000

          k = 0.5070-0.5914 0.4225 (  1425 PWs)   bands (ev):

   -45.5935   2.9101   4.4551   5.7891   9.4690  22.7965

     occupation numbers 
     1.0000   0.0000   0.0000   0.0000   0.0000   0.0000

          k = 0.0000 0.0000 0.5070 (  1413 PWs)   bands (ev):

   -45.5962  -0.2364   9.4116   9.4116  11.8223  13.5486

     occupation numbers 
     1.0000   1.0000   0.0000   0.0000   0.0000   0.0000

          k = 0.0000-0.0845 0.5914 (  1421 PWs)   bands (ev):

   -45.5922   0.7103   7.7694   8.5852  11.5705  13.5392

     occupation numbers 
     1.0000   1.0801   0.0000   0.0000   0.0000   0.0000

          k = 0.0000-0.1690 0.6759 (  1414 PWs)   bands (ev):

   -45.5893   1.8663   5.8579   8.0831  11.7982  14.0677

     occupation numbers 
     1.0000   0.0000   0.0000   0.0000   0.0000   0.0000

          k = 0.0000 0.7604-0.2535 (  1420 PWs)   bands (ev):

   -45.5883   2.7056   4.7433   7.9149  11.8743  15.1238

     occupation numbers 
     1.0000   0.0000   0.0000   0.0000   0.0000   0.0000

          k =-0.0845-0.0845 0.6759 (  1415 PWs)   bands (ev):

   -45.5890   1.7904   6.6946   7.6462  11.4663  13.4772

     occupation numbers 
     1.0000   0.0000   0.0000   0.0000   0.0000   0.0000

          k =-0.0845 0.8449-0.2535 (  1409 PWs)   bands (ev):

   -45.5871   3.0082   5.2048   7.2140  11.9117  13.7995

     occupation numbers 
     1.0000   0.0000   0.0000   0.0000   0.0000   0.0000

          k =-0.1690 0.8449-0.1690 (  1412 PWs)   bands (ev):

   -45.5863   4.2302   4.2302   6.7377  12.9056  12.9056

     occupation numbers 
     1.0000   0.0000   0.0000   0.0000   0.0000   0.0000

          k = 0.5070-0.5070 0.5070 (  1436 PWs)   bands (ev):

   -45.5933   4.2841   4.2841   4.2841   9.2562  24.4124

     occupation numbers 
     1.0000   0.0000   0.0000   0.0000   0.0000   0.0000

          k =-0.0000 0.0000 0.6759 (  1417 PWs)   bands (ev):

   -45.5886   1.6888   7.7554   7.7554  10.0631  13.2124

     occupation numbers 
     1.0000   0.0000   0.0000   0.0000   0.0000   0.0000

          k = 0.0000-0.0845 0.7604 (  1412 PWs)   bands (ev):

   -45.5860   2.9017   6.4477   7.2517  10.1975  12.8789

     occupation numbers 
     1.0000   0.0000   0.0000   0.0000   0.0000   0.0000

          k = 0.0000 0.8449-0.1690 (  1412 PWs)   bands (ev):

   -45.5851   3.8850   5.2866   7.0830  10.6417  12.5644

     occupation numbers 
     1.0000   0.0000   0.0000   0.0000   0.0000   0.0000

          k =-0.0845 0.9294-0.1690 (  1411 PWs)   bands (ev):

   -45.5843   4.1965   5.6697   6.7000  10.4306  11.7434

     occupation numbers 
     1.0000   0.0000   0.0000   0.0000   0.0000   0.0000

          k = 0.0000-0.0000 0.8449 (  1408 PWs)   bands (ev):

   -45.5836   4.1730   6.7471   6.7471   9.0076  11.2875

     occupation numbers 
     1.0000   0.0000   0.0000   0.0000   0.0000   0.0000

          k =-0.0000 0.9294-0.0845 (  1428 PWs)   bands (ev):

   -45.5827   5.3269   5.9700   6.5782   9.3316  10.0843

     occupation numbers 
     1.0000   0.0000   0.0000   0.0000   0.0000   0.0000

          k =-0.0000-0.0000-1.0139 (  1464 PWs)   bands (ev):

   -45.5819   6.4092   6.4092   6.4092   8.6557   8.6557

     occupation numbers 
     1.0000   0.0000   0.0000   0.0000   0.0000   0.0000

     the Fermi energy is     0.9194 ev

!    total energy              =     -14.47175543 Ry
     estimated scf accuracy    <          4.9E-13 Ry
     smearing contrib. (-TS)   =      -0.00010311 Ry
     internal energy E=F+TS    =     -14.47165232 Ry

     The total energy is F=E-TS. E is the sum of the following terms:
     one-electron contribution =      -9.73147912 Ry
     hartree contribution      =       3.66743901 Ry
     xc contribution           =      -3.37600015 Ry
     ewald contribution        =      -5.03161205 Ry

     convergence has been achieved in   5 iterations

     Forces acting on atoms (cartesian axes, Ry/au):

     atom    1 type  1   force =     0.00000000    0.00000000    0.00000000
     The non-local contrib.  to forces
     atom    1 type  1   force =     0.00000000   -0.00000000   -0.00000000
     The ionic contribution  to forces
     atom    1 type  1   force =    -0.00000000   -0.00000000   -0.00000000
     The local contribution  to forces
     atom    1 type  1   force =     0.00000000   -0.00000000    0.00000000
     The core correction contribution to forces
     atom    1 type  1   force =     0.00000000    0.00000000    0.00000000
     The Hubbard contrib.    to forces
     atom    1 type  1   force =     0.00000000    0.00000000    0.00000000
     The SCF correction term to forces
     atom    1 type  1   force =     0.00000000   -0.00000000    0.00000000

     Total force =     0.000000     Total SCF correction =     0.000000


     Computing stress (Cartesian axis) and pressure

          total   stress  (Ry/bohr**3)                   (kbar)     P=       -0.88
  -0.00000595   0.00000000  -0.00000000           -0.88        0.00       -0.00
   0.00000000  -0.00000595   0.00000000            0.00       -0.88        0.00
  -0.00000000   0.00000000  -0.00000595           -0.00        0.00       -0.88

     kinetic stress (kbar)   2260.83     -0.00      0.00
                               -0.00   2260.83     -0.00
                                0.00     -0.00   2260.83

     local   stress (kbar)    321.33     -0.00      0.00
                               -0.00    321.33     -0.00
                                0.00     -0.00    321.33

     nonloc. stress (kbar)   -945.40      0.00     -0.00
                                0.00   -945.40      0.00
                               -0.00      0.00   -945.40

     hartree stress (kbar)   1303.96     -0.00     -0.00
                               -0.00   1303.96     -0.00
                               -0.00     -0.00   1303.96

     exc-cor stress (kbar)  -1152.59     -0.00     -0.00
                               -0.00  -1152.59     -0.00
                               -0.00     -0.00  -1152.59

     corecor stress (kbar)      0.00      0.00      0.00
                                0.00      0.00      0.00
                                0.00      0.00      0.00

     ewald   stress (kbar)  -1788.99      0.00     -0.00
                                0.00  -1788.99     -0.00
                               -0.00     -0.00  -1788.99

     hubbard stress (kbar)      0.00      0.00      0.00
                                0.00      0.00      0.00
                                0.00      0.00      0.00

     DFT-D   stress (kbar)      0.00      0.00      0.00
                                0.00      0.00      0.00
                                0.00      0.00      0.00

     XDM     stress (kbar)      0.00      0.00      0.00
                                0.00      0.00      0.00
                                0.00      0.00      0.00

     dft-nl  stress (kbar)      0.00      0.00      0.00
                                0.00      0.00      0.00
                                0.00      0.00      0.00

     TS-vdW  stress (kbar)      0.00      0.00      0.00
                                0.00      0.00      0.00
                                0.00      0.00      0.00

     MDB     stress (kbar)      0.00      0.00      0.00
                                0.00      0.00      0.00
                                0.00      0.00      0.00

     3D-RISM stress (kbar)      0.00      0.00      0.00
                                0.00      0.00      0.00
                                0.00      0.00      0.00

     Energy error            =      2.9E-05 Ry
     Gradient error          =      0.0E+00 Ry/Bohr
     Cell gradient error     =      8.8E-01 kbar

     number of scf cycles    =   6
     number of bfgs steps    =   5

     enthalpy           old  =     -14.4717260984 Ry
     enthalpy           new  =     -14.4717554261 Ry

     CASE: enthalpy          _new < enthalpy          _old

     new trust radius        =       0.0051175868 bohr
ibrav =      3
 celldm(1) =      6.49528140
Input lattice vectors:
     0.49206677     0.49206677     0.49206677
    -0.49206677     0.49206677     0.49206677
    -0.49206677    -0.49206677     0.49206677
New lattice vectors in INITIAL alat:
     0.49206677     0.49206677     0.49206677
    -0.49206677     0.49206677     0.49206677
    -0.49206677    -0.49206677     0.49206677
New lattice vectors in NEW alat (for information only):
     0.50000000     0.50000000     0.50000000
    -0.50000000     0.50000000     0.50000000
    -0.50000000    -0.50000000     0.50000000
Discrepancy in bohr =     0.000000    0.000000    0.000000
     new conv_thr            =            1.0E-12 Ry

     new unit-cell volume =    137.01368 a.u.^3 (    20.30333 Ang^3 )
     density =      0.56768 g/cm^3

CELL_PARAMETERS (alat=  6.60000000)
   0.492066772   0.492066772   0.492066772
  -0.492066772   0.492066772   0.492066772
  -0.492066772  -0.492066772   0.492066772

ATOMIC_POSITIONS (crystal)
Li               0.0000000000        0.0000000000        0.0000000000



     Writing config-only to output data dir ./tmp_relax/Li.save/ :
     XML data file
     NEW-OLD atomic charge density approx. for the potential
     New effective cutoffs (rho, wfc):  555.84   72.27

     total cpu time spent up to now is        5.1 secs

     Self-consistent Calculation

     iteration #  1     ecut=    70.00 Ry     beta= 0.30
     Davidson diagonalization with overlap

---- Real-time Memory Report at c_bands before calling an iterative solver
             0 MiB given to the printing process from OS
             0 MiB allocation reported by mallinfo(arena+hblkhd)
             0 MiB available memory on the node where the printing process lives
------------------
     ethr =  1.00E-06,  avg # of iterations =  2.1

     Threshold (ethr) on eigenvalues was too large:
     Diagonalizing with lowered threshold

     Davidson diagonalization with overlap

---- Real-time Memory Report at c_bands before calling an iterative solver
             0 MiB given to the printing process from OS
             0 MiB allocation reported by mallinfo(arena+hblkhd)
             0 MiB available memory on the node where the printing process lives
------------------
     ethr =  1.29E-10,  avg # of iterations =  3.8

     total cpu time spent up to now is        5.3 secs

     total energy              =     -14.47175802 Ry
     estimated scf accuracy    <          2.8E-09 Ry

     iteration #  2     ecut=    70.00 Ry     beta= 0.30
     Davidson diagonalization with overlap

---- Real-time Memory Report at c_bands before calling an iterative solver
             0 MiB given to the printing process from OS
             0 MiB allocation reported by mallinfo(arena+hblkhd)
             0 MiB available memory on the node where the printing process lives
------------------
     ethr =  9.45E-11,  avg # of iterations =  1.0

     total cpu time spent up to now is        5.5 secs

     total energy              =     -14.47175802 Ry
     estimated scf accuracy    <          1.4E-09 Ry

     iteration #  3     ecut=    70.00 Ry     beta= 0.30
     Davidson diagonalization with overlap

---- Real-time Memory Report at c_bands before calling an iterative solver
             0 MiB given to the printing process from OS
             0 MiB allocation reported by mallinfo(arena+hblkhd)
             0 MiB available memory on the node where the printing process lives
------------------
     ethr =  4.55E-11,  avg # of iterations =  1.0

     total cpu time spent up to now is        5.6 secs

     total energy              =     -14.47175803 Ry
     estimated scf accuracy    <          2.2E-12 Ry

     iteration #  4     ecut=    70.00 Ry     beta= 0.30
     Davidson diagonalization with overlap

---- Real-time Memory Report at c_bands before calling an iterative solver
             0 MiB given to the printing process from OS
             0 MiB allocation reported by mallinfo(arena+hblkhd)
             0 MiB available memory on the node where the printing process lives
------------------
     ethr =  1.00E-13,  avg # of iterations =  4.0

     total cpu time spent up to now is        5.7 secs

     End of self-consistent calculation

          k = 0.0000 0.0000 0.0000 (  1433 PWs)   bands (ev):

   -45.5821  -2.6345  15.5289  15.5289  15.5289  20.3073

     occupation numbers 
     1.0000   1.0000   0.0000   0.0000   0.0000   0.0000

          k =-0.0000-0.0847 0.0847 (  1443 PWs)   bands (ev):

   -45.5808  -2.5030  14.6315  14.9077  15.3001  18.6999

     occupation numbers 
     1.0000   1.0000   0.0000   0.0000   0.0000   0.0000

          k =-0.0000-0.1694 0.1694 (  1431 PWs)   bands (ev):

   -45.5773  -2.1079  12.2824  13.7714  14.6925  17.3633

     occupation numbers 
     1.0000   1.0000   0.0000   0.0000   0.0000   0.0000

          k = 0.0000-0.2540 0.2540 (  1428 PWs)   bands (ev):

   -45.5725  -1.4506   9.6200  12.7262  13.9535  16.1408

     occupation numbers 
     1.0000   1.0000   0.0000   0.0000   0.0000   0.0000

          k =-0.0000-0.3387 0.3387 (  1422 PWs)   bands (ev):

   -45.5677  -0.5466   7.1735  11.9372  13.3172  15.2636

     occupation numbers 
     1.0000   1.0000   0.0000   0.0000   0.0000   0.0000

          k = 0.0000-0.4234 0.4234 (  1424 PWs)   bands (ev):

   -45.5642   0.5139   5.1618  11.4529  12.9037  14.7364

     occupation numbers 
     1.0000   1.0008   0.0000   0.0000   0.0000   0.0000

          k =-0.0000 0.5081-0.5081 (  1416 PWs)   bands (ev):

   -45.5629   1.1823   4.1731  11.2901  12.7616  14.5605

     occupation numbers 
     1.0000   0.0010   0.0000   0.0000   0.0000   0.0000

          k =-0.0847-0.0847 0.1694 (  1443 PWs)   bands (ev):

   -45.5784  -2.2395  13.5209  13.5504  14.5910  17.9444

     occupation numbers 
     1.0000   1.0000   0.0000   0.0000   0.0000   0.0000

          k =-0.0847-0.1694 0.2540 (  1422 PWs)   bands (ev):

   -45.5743  -1.7121  10.9683  12.4505  13.6921  17.5979

     occupation numbers 
     1.0000   1.0000   0.0000   0.0000   0.0000   0.0000

          k =-0.0847-0.2540 0.3387 (  1428 PWs)   bands (ev):

   -45.5695  -0.9255   8.3950  11.5658  12.8801  16.9249

     occupation numbers 
     1.0000   1.0000   0.0000   0.0000   0.0000   0.0000

          k =-0.0847-0.3387 0.4234 (  1420 PWs)   bands (ev):

   -45.5653   0.0852   6.1365  10.9548  12.2932  16.3749

     occupation numbers 
     1.0000   1.0000   0.0000   0.0000   0.0000   0.0000

          k =-0.0847 0.5927-0.5081 (  1416 PWs)   bands (ev):

   -45.5629   1.1017   4.4847  10.6443  11.9898  16.0822

     occupation numbers 
     1.0000   0.0147   0.0000   0.0000   0.0000   0.0000

          k =-0.1694-0.1694 0.3387 (  1423 PWs)   bands (ev):

   -45.5701  -1.0515   9.4010  10.5426  12.8485  17.7000

     occupation numbers 
     1.0000   1.0000   0.0000   0.0000   0.0000   0.0000

          k =-0.1694-0.2540 0.4234 (  1413 PWs)   bands (ev):

   -45.5660  -0.1361   7.2356   9.5593  12.2199  17.8084

     occupation numbers 
     1.0000   1.0000   0.0000   0.0000   0.0000   0.0000

          k =-0.1694 0.6774-0.5081 (  1420 PWs)   bands (ev):

   -45.5629   0.9634   5.2555   9.0562  11.8225  17.7514

     occupation numbers 
     1.0000   0.2922   0.0000   0.0000   0.0000   0.0000

          k =-0.1694 0.5927-0.4234 (  1420 PWs)   bands (ev):

   -45.5618   1.7043   4.2111   8.8930  11.6868  17.7017

     occupation numbers 
     1.0000   0.0000   0.0000   0.0000   0.0000   0.0000

          k =-0.2540 0.7621-0.5081 (  1417 PWs)   bands (ev):

   -45.5629   0.9026   5.8524   8.1431  11.8103  18.4223

     occupation numbers 
     1.0000   0.6027   0.0000   0.0000   0.0000   0.0000

          k =-0.2540 0.6774-0.4234 (  1427 PWs)   bands (ev):

   -45.5612   2.0572   4.3681   7.5677  11.5990  18.8255

     occupation numbers 
     1.0000   0.0000   0.0000   0.0000   0.0000   0.0000

          k =-0.3387 0.6774-0.3387 (  1421 PWs)   bands (ev):

   -45.5605   3.2663   3.2663   7.0223  11.5253  20.0816

     occupation numbers 
     1.0000   0.0000   0.0000   0.0000   0.0000   0.0000

          k =-0.0000 0.0000 0.1694 (  1441 PWs)   bands (ev):

   -45.5796  -2.3709  14.2019  14.2019  14.9797  17.5372

     occupation numbers 
     1.0000   1.0000   0.0000   0.0000   0.0000   0.0000

          k =-0.0000-0.0847 0.2540 (  1432 PWs)   bands (ev):

   -45.5761  -1.9741  12.2438  12.9869  14.5239  16.4218

     occupation numbers 
     1.0000   1.0000   0.0000   0.0000   0.0000   0.0000

          k =-0.0000-0.1694 0.3387 (  1419 PWs)   bands (ev):

   -45.5714  -1.3137   9.6728  11.9024  13.8822  16.3805

     occupation numbers 
     1.0000   1.0000   0.0000   0.0000   0.0000   0.0000

          k = 0.0000-0.2540 0.4234 (  1417 PWs)   bands (ev):

   -45.5667  -0.4041   7.2495  11.0931  13.2814  16.4498

     occupation numbers 
     1.0000   1.0000   0.0000   0.0000   0.0000   0.0000

          k = 0.0000-0.3387 0.5081 (  1418 PWs)   bands (ev):

   -45.5633   0.6688   5.2367  10.5989  12.8853  15.9354

     occupation numbers 
     1.0000   1.0417   0.0000   0.0000   0.0000   0.0000

          k = 0.0000 0.5927-0.4234 (  1422 PWs)   bands (ev):

   -45.5620   1.3553   4.2330  10.4330  12.7488  15.7633

     occupation numbers 
     1.0000   0.0000   0.0000   0.0000   0.0000   0.0000

          k =-0.0847-0.0847 0.3387 (  1422 PWs)   bands (ev):

   -45.5722  -1.4425  10.7676  11.3283  14.1197  15.5813

     occupation numbers 
     1.0000   1.0000   0.0000   0.0000   0.0000   0.0000

          k =-0.0847-0.1694 0.4234 (  1420 PWs)   bands (ev):

   -45.5676  -0.6486   8.4696  10.2830  13.5769  15.6657

     occupation numbers 
     1.0000   1.0000   0.0000   0.0000   0.0000   0.0000

          k =-0.0847-0.2540 0.5081 (  1423 PWs)   bands (ev):

   -45.5636   0.3771   6.2643   9.6418  13.0722  16.1297

     occupation numbers 
     1.0000   1.0000   0.0000   0.0000   0.0000   0.0000

          k =-0.0847 0.6774-0.4234 (  1422 PWs)   bands (ev):

   -45.5613   1.4310   4.5980   9.3216  12.7955  16.4239

     occupation numbers 
     1.0000   0.0000   0.0000   0.0000   0.0000   0.0000

          k =-0.1694 0.1694 0.1694 (  1427 PWs)   bands (ev):

   -45.5753  -1.8446  12.3332  12.3332  12.6455  18.4072

     occupation numbers 
     1.0000   1.0000   0.0000   0.0000   0.0000   0.0000

          k =-0.1694-0.1694 0.5081 (  1428 PWs)   bands (ev):

   -45.5637   0.2762   7.0222   8.7821  13.3375  15.6550

     occupation numbers 
     1.0000   1.0000   0.0000   0.0000   0.0000   0.0000

          k =-0.1694 0.7621-0.4234 (  1423 PWs)   bands (ev):

   -45.5609   1.4057   5.2900   8.0801  13.0695  16.1810

     occupation numbers 
     1.0000   0.0000   0.0000   0.0000   0.0000   0.0000

          k =-0.1694 0.6774-0.3387 (  1421 PWs)   bands (ev):

   -45.5598   2.2217   4.2294   7.8800  12.9591  16.5470

     occupation numbers 
     1.0000   0.0000   0.0000   0.0000   0.0000   0.0000

          k =-0.2540 0.2540 0.1694 (  1419 PWs)   bands (ev):

   -45.5711  -1.1858   9.7132  11.2634  11.7924  18.5884

     occupation numbers 
     1.0000   1.0000   0.0000   0.0000   0.0000   0.0000

          k =-0.2540 0.7621-0.3387 (  1424 PWs)   bands (ev):

   -45.5593   2.6152   4.1217   7.2213  13.0488  16.8791

     occupation numbers 
     1.0000   0.0000   0.0000   0.0000   0.0000   0.0000

          k =-0.3387 0.3387 0.1694 (  1414 PWs)   bands (ev):

   -45.5668  -0.2741   7.2729  10.4616  11.1690  18.3992

     occupation numbers 
     1.0000   1.0000   0.0000   0.0000   0.0000   0.0000

          k =-0.3387 0.2540 0.2540 (  1417 PWs)   bands (ev):

   -45.5674  -0.3949   8.2545   9.3446  11.0701  19.5326

     occupation numbers 
     1.0000   1.0000   0.0000   0.0000   0.0000   0.0000

          k = 0.5927-0.5927 0.1694 (  1420 PWs)   bands (ev):

   -45.5637   0.8139   5.2416   9.9708  10.7845  18.1281

     occupation numbers 
     1.0000   1.0026   0.0000   0.0000   0.0000   0.0000

          k = 0.5927-0.6774 0.2540 (  1430 PWs)   bands (ev):

   -45.5641   0.6405   6.2405   8.4723  10.6193  19.9080

     occupation numbers 
     1.0000   1.0254   0.0000   0.0000   0.0000   0.0000

          k = 0.5081-0.5081 0.1694 (  1434 PWs)   bands (ev):

   -45.5626   1.5314   4.2064   9.8059  10.6547  18.0174

     occupation numbers 
     1.0000   0.0000   0.0000   0.0000   0.0000   0.0000

          k = 0.5081-0.5927 0.2540 (  1424 PWs)   bands (ev):

   -45.5623   1.7509   4.5496   8.1082  10.3933  19.9369

     occupation numbers 
     1.0000   0.0000   0.0000   0.0000   0.0000   0.0000

          k = 0.5081-0.6774 0.3387 (  1426 PWs)   bands (ev):

   -45.5622   1.7903   5.0022   7.2033  10.3256  21.0215

     occupation numbers 
     1.0000   0.0000   0.0000   0.0000   0.0000   0.0000

          k = 0.4234-0.5927 0.3387 (  1425 PWs)   bands (ev):

   -45.5615   2.7500   3.9412   6.8442  10.2289  21.2981

     occupation numbers 
     1.0000   0.0000   0.0000   0.0000   0.0000   0.0000

          k =-0.0000 0.0000 0.3387 (  1429 PWs)   bands (ev):

   -45.5729  -1.5722  11.7092  11.7092  14.1461  14.3586

     occupation numbers 
     1.0000   1.0000   0.0000   0.0000   0.0000   0.0000

          k = 0.0000-0.0847 0.4234 (  1424 PWs)   bands (ev):

   -45.5685  -0.9027   9.7802  10.5958  13.5096  14.1320

     occupation numbers 
     1.0000   1.0000   0.0000   0.0000   0.0000   0.0000

          k =-0.0000-0.1694 0.5081 (  1418 PWs)   bands (ev):

   -45.5641   0.0228   7.4790   9.7722  13.0209  14.7455

     occupation numbers 
     1.0000   1.0000   0.0000   0.0000   0.0000   0.0000

          k = 0.0000-0.2540 0.5927 (  1424 PWs)   bands (ev):

   -45.5608   1.1306   5.4745   9.2710  12.7033  15.6781

     occupation numbers 
     1.0000   0.0062   0.0000   0.0000   0.0000   0.0000

          k = 0.0000 0.6774-0.3387 (  1422 PWs)   bands (ev):

   -45.5596   1.8731   4.4261   9.1030  12.5930  16.3293

     occupation numbers 
     1.0000   0.0000   0.0000   0.0000   0.0000   0.0000

          k =-0.0847-0.0847 0.5081 (  1420 PWs)   bands (ev):

   -45.5642  -0.0953   8.4398   9.2635  13.2482  13.7529

     occupation numbers 
     1.0000   1.0000   0.0000   0.0000   0.0000   0.0000

          k =-0.0847-0.1694 0.5927 (  1423 PWs)   bands (ev):

   -45.5606   0.9568   6.5117   8.4950  13.0861  14.2530

     occupation numbers 
     1.0000   0.3213   0.0000   0.0000   0.0000   0.0000

          k =-0.0847 0.7621-0.3387 (  1422 PWs)   bands (ev):

   -45.5584   2.0827   4.8463   8.1547  12.8998  15.2589

     occupation numbers 
     1.0000   0.0000   0.0000   0.0000   0.0000   0.0000

          k =-0.1694 0.8468-0.3387 (  1422 PWs)   bands (ev):

   -45.5580   2.1186   5.3011   7.4612  13.8639  13.9960

     occupation numbers 
     1.0000   0.0000   0.0000   0.0000   0.0000   0.0000

          k =-0.1694 0.7621-0.2540 (  1417 PWs)   bands (ev):

   -45.5571   3.0793   4.2574   7.1529  13.7803  14.9340

     occupation numbers 
     1.0000   0.0000   0.0000   0.0000   0.0000   0.0000

          k = 0.6774-0.6774 0.3387 (  1418 PWs)   bands (ev):

   -45.5646   0.5276   7.4163   7.4163  10.1958  21.0172

     occupation numbers 
     1.0000   1.0013   0.0000   0.0000   0.0000   0.0000

          k = 0.5927-0.5927 0.3387 (  1426 PWs)   bands (ev):

   -45.5626   1.6805   5.4600   6.9086   9.8264  21.7898

     occupation numbers 
     1.0000   0.0000   0.0000   0.0000   0.0000   0.0000

          k = 0.5081-0.5081 0.3387 (  1430 PWs)   bands (ev):

   -45.5618   2.5775   4.2780   6.7388   9.7150  22.0201

     occupation numbers 
     1.0000   0.0000   0.0000   0.0000   0.0000   0.0000

          k = 0.5081-0.5927 0.4234 (  1425 PWs)   bands (ev):

   -45.5617   2.9373   4.4885   5.8297   9.5450  22.9175

     occupation numbers 
     1.0000   0.0000   0.0000   0.0000   0.0000   0.0000

          k = 0.0000 0.0000 0.5081 (  1413 PWs)   bands (ev):

   -45.5644  -0.2182   9.4692   9.4692  11.8854  13.6370

     occupation numbers 
     1.0000   1.0000   0.0000   0.0000   0.0000   0.0000

          k = 0.0000-0.0847 0.5927 (  1421 PWs)   bands (ev):

   -45.5604   0.7314   7.8195   8.6390  11.6342  13.6277

     occupation numbers 
     1.0000   1.0802   0.0000   0.0000   0.0000   0.0000

          k = 0.0000-0.1694 0.6774 (  1414 PWs)   bands (ev):

   -45.5574   1.8906   5.9008   8.1346  11.8677  14.1536

     occupation numbers 
     1.0000   0.0000   0.0000   0.0000   0.0000   0.0000

          k =-0.0000 0.7621-0.2540 (  1420 PWs)   bands (ev):

   -45.5564   2.7314   4.7834   7.9656  11.9469  15.2142

     occupation numbers 
     1.0000   0.0000   0.0000   0.0000   0.0000   0.0000

          k =-0.0847-0.0847 0.6774 (  1415 PWs)   bands (ev):

   -45.5571   1.8149   6.7387   7.6979  11.5292  13.5655

     occupation numbers 
     1.0000   0.0000   0.0000   0.0000   0.0000   0.0000

          k =-0.0847 0.8468-0.2540 (  1409 PWs)   bands (ev):

   -45.5552   3.0363   5.2434   7.2644  11.9792  13.8811

     occupation numbers 
     1.0000   0.0000   0.0000   0.0000   0.0000   0.0000

          k =-0.1694 0.8468-0.1694 (  1412 PWs)   bands (ev):

   -45.5543   4.2629   4.2629   6.7891  12.9753  12.9753

     occupation numbers 
     1.0000   0.0000   0.0000   0.0000   0.0000   0.0000

          k = 0.5081-0.5081 0.5081 (  1436 PWs)   bands (ev):

   -45.5615   4.3168   4.3168   4.3168   9.3337  24.5405

     occupation numbers 
     1.0000   0.0000   0.0000   0.0000   0.0000   0.0000

          k =-0.0000 0.0000 0.6774 (  1417 PWs)   bands (ev):

   -45.5567   1.7132   7.8054   7.8054  10.1186  13.3016

     occupation numbers 
     1.0000   0.0000   0.0000   0.0000   0.0000   0.0000

          k = 0.0000-0.0847 0.7621 (  1412 PWs)   bands (ev):

   -45.5541   2.9302   6.4919   7.2993  10.2549  12.9588

     occupation numbers 
     1.0000   0.0000   0.0000   0.0000   0.0000   0.0000

          k = 0.0000 0.8468-0.1694 (  1412 PWs)   bands (ev):

   -45.5531   3.9161   5.3271   7.1299  10.7035  12.6326

     occupation numbers 
     1.0000   0.0000   0.0000   0.0000   0.0000   0.0000

          k =-0.0847 0.9314-0.1694 (  1411 PWs)   bands (ev):

   -45.5523   4.2297   5.7091   6.7473  10.4889  11.8092

     occupation numbers 
     1.0000   0.0000   0.0000   0.0000   0.0000   0.0000

          k = 0.0000-0.0000 0.8468 (  1408 PWs)   bands (ev):

   -45.5516   4.2067   6.7925   6.7925   9.0584  11.3524

     occupation numbers 
     1.0000   0.0000   0.0000   0.0000   0.0000   0.0000

          k =-0.0000 0.9314-0.0847 (  1428 PWs)   bands (ev):

   -45.5507   5.3648   6.0121   6.6228   9.3848  10.1411

     occupation numbers 
     1.0000   0.0000   0.0000   0.0000   0.0000   0.0000

          k =-0.0000-0.0000-1.0161 (  1464 PWs)   bands (ev):

   -45.5498   6.4530   6.4530   6.4530   8.7050   8.7050

     occupation numbers 
     1.0000   0.0000   0.0000   0.0000   0.0000   0.0000

     the Fermi energy is     0.9402 ev

!    total energy              =     -14.47175803 Ry
     estimated scf accuracy    <          9.3E-14 Ry
     smearing contrib. (-TS)   =      -0.00010376 Ry
     internal energy E=F+TS    =     -14.47165427 Ry

     The total energy is F=E-TS. E is the sum of the following terms:
     one-electron contribution =      -9.71478219 Ry
     hartree contribution      =       3.66265876 Ry
     xc contribution           =      -3.37693159 Ry
     ewald contribution        =      -5.04259924 Ry

     convergence has been achieved in   4 iterations

     Forces acting on atoms (cartesian axes, Ry/au):

     atom    1 type  1   force =     0.00000000    0.00000000    0.00000000
     The non-local contrib.  to forces
     atom    1 type  1   force =     0.00000000    0.00000000    0.00000000
     The ionic contribution  to forces
     atom    1 type  1   force =    -0.00000000   -0.00000000   -0.00000000
     The local contribution  to forces
     atom    1 type  1   force =     0.00000000   -0.00000000    0.00000000
     The core correction contribution to forces
     atom    1 type  1   force =     0.00000000    0.00000000    0.00000000
     The Hubbard contrib.    to forces
     atom    1 type  1   force =     0.00000000    0.00000000    0.00000000
     The SCF correction term to forces
     atom    1 type  1   force =    -0.00000000    0.00000000   -0.00000000

     Total force =     0.000000     Total SCF correction =     0.000000


     Computing stress (Cartesian axis) and pressure

          total   stress  (Ry/bohr**3)                   (kbar)     P=        0.02
   0.00000017   0.00000000  -0.00000000            0.02        0.00       -0.00
  -0.00000000   0.00000017  -0.00000000           -0.00        0.02       -0.00
  -0.00000000  -0.00000000   0.00000017           -0.00       -0.00        0.02

     kinetic stress (kbar)   2276.87     -0.00      0.00
                               -0.00   2276.87     -0.00
                                0.00     -0.00   2276.87

     local   stress (kbar)    328.94     -0.00      0.00
                               -0.00    328.94      0.00
                                0.00      0.00    328.94

     nonloc. stress (kbar)   -951.46      0.00     -0.00
                                0.00   -951.46      0.00
                               -0.00      0.00   -951.46

     hartree stress (kbar)   1310.81      0.00     -0.00
                                0.00   1310.81     -0.00
                               -0.00     -0.00   1310.81

     exc-cor stress (kbar)  -1160.47     -0.00      0.00
                               -0.00  -1160.47     -0.00
                                0.00     -0.00  -1160.47

     corecor stress (kbar)      0.00      0.00      0.00
                                0.00      0.00      0.00
                                0.00      0.00      0.00

     ewald   stress (kbar)  -1804.67     -0.00     -0.00
                               -0.00  -1804.67      0.00
                               -0.00      0.00  -1804.67

     hubbard stress (kbar)      0.00      0.00      0.00
                                0.00      0.00      0.00
                                0.00      0.00      0.00

     DFT-D   stress (kbar)      0.00      0.00      0.00
                                0.00      0.00      0.00
                                0.00      0.00      0.00

     XDM     stress (kbar)      0.00      0.00      0.00
                                0.00      0.00      0.00
                                0.00      0.00      0.00

     dft-nl  stress (kbar)      0.00      0.00      0.00
                                0.00      0.00      0.00
                                0.00      0.00      0.00

     TS-vdW  stress (kbar)      0.00      0.00      0.00
                                0.00      0.00      0.00
                                0.00      0.00      0.00

     MDB     stress (kbar)      0.00      0.00      0.00
                                0.00      0.00      0.00
                                0.00      0.00      0.00

     3D-RISM stress (kbar)      0.00      0.00      0.00
                                0.00      0.00      0.00
                                0.00      0.00      0.00

     Energy error            =      2.6E-06 Ry
     Gradient error          =      0.0E+00 Ry/Bohr
     Cell gradient error     =      2.5E-02 kbar
ibrav =      3
 celldm(1) =      6.49528140
Input lattice vectors:
     0.49206677     0.49206677     0.49206677
    -0.49206677     0.49206677     0.49206677
    -0.49206677    -0.49206677     0.49206677
New lattice vectors in INITIAL alat:
     0.49206677     0.49206677     0.49206677
    -0.49206677     0.49206677     0.49206677
    -0.49206677    -0.49206677     0.49206677
New lattice vectors in NEW alat (for information only):
     0.50000000     0.50000000     0.50000000
    -0.50000000     0.50000000     0.50000000
    -0.50000000    -0.50000000     0.50000000
Discrepancy in bohr =     0.000000    0.000000    0.000000

     bfgs converged in   7 scf cycles and   6 bfgs steps
     (criteria: energy <  1.0E-04 Ry, force <  1.0E-04 Ry/Bohr, cell <  5.0E-01 kbar)

     End of BFGS Geometry Optimization

     Final enthalpy           =     -14.4717580319 Ry

     File ./tmp_relax/Li.bfgs deleted, as requested
Begin final coordinates
     new unit-cell volume =    137.01368 a.u.^3 (    20.30333 Ang^3 )
     density =      0.56768 g/cm^3

CELL_PARAMETERS (alat=  6.60000000)
   0.492066772   0.492066772   0.492066772
  -0.492066772   0.492066772   0.492066772
  -0.492066772  -0.492066772   0.492066772

ATOMIC_POSITIONS (crystal)
Li               0.0000000000        0.0000000000        0.0000000000
End final coordinates



     Writing config-only to output data dir ./tmp_relax/Li.save/ :
     XML data file

     Final scf calculation at the relaxed structure.
     The G-vectors are recalculated for the final unit cell
     Results may differ from those at the preceding step.

     Parallelization info
     --------------------
     sticks:   dense  smooth     PW     G-vecs:    dense   smooth      PW
     Min         317     164     51                 7224     2707     466
     Max         319     165     52                 7225     2710     467
     Sum        1273     657    205                28897    10833    1865

     Using Slab Decomposition



     bravais-lattice index     =            3
     lattice parameter (alat)  =       6.6000  a.u.
     unit-cell volume          =     137.0137 (a.u.)^3
     number of atoms/cell      =            1
     number of atomic types    =            1
     number of electrons       =         3.00
     number of Kohn-Sham states=            6
     kinetic-energy cutoff     =      70.0000  Ry
     charge density cutoff     =     540.0000  Ry
     scf convergence threshold =      1.0E-12
     mixing beta               =       0.3000
     number of iterations used =            8  plain     mixing
     press convergence thresh. =      5.0E-01
     Exchange-correlation= PBE
                           (   1   4   3   4   0   0   0)

     celldm(1)=   6.600000  celldm(2)=   0.000000  celldm(3)=   0.000000
     celldm(4)=   0.000000  celldm(5)=   0.000000  celldm(6)=   0.000000

     crystal axes: (cart. coord. in units of alat)
               a(1) = (   0.492067   0.492067   0.492067 )  
               a(2) = (  -0.492067   0.492067   0.492067 )  
               a(3) = (  -0.492067  -0.492067   0.492067 )  

     reciprocal axes: (cart. coord. in units 2 pi/alat)
               b(1) = (  1.016122  0.000000  1.016122 )  
               b(2) = ( -1.016122  1.016122  0.000000 )  
               b(3) = (  0.000000 -1.016122  1.016122 )  


     PseudoPot. # 1 for Li read from file:
     /Users/qiqi/battery/dft/pseudo/Li.us.pbe.z_3.uspp.gbrv.v1.4.upf
     MD5 check sum: ab40f926ca6decaa01295ae7eb5ebb1a
     Pseudo is Ultrasoft, Zval =  3.0
     
     Using radial grid of  751 points,  5 beta functions with: 
                l(1) =   0
                l(2) =   0
                l(3) =   0
                l(4) =   1
                l(5) =   1
     Q(r) pseudized with 0 coefficients 


     atomic species   valence    mass     pseudopotential
     Li                3.00     6.94100     Li( 1.00)

     48 Sym. Ops., with inversion, found


                                    s                        frac. trans.

      isym =  1     identity                                     

 cryst.   s( 1) = (     1          0          0      )
                  (     0          1          0      )
                  (     0          0          1      )

 cart.    s( 1) = (  1.0000000  0.0000000  0.0000000 )
                  (  0.0000000  1.0000000  0.0000000 )
                  (  0.0000000  0.0000000  1.0000000 )


      isym =  2     180 deg rotation - cart. axis [0,0,1]        

 cryst.   s( 2) = (     0          0          1      )
                  (     1         -1          1      )
                  (     1          0          0      )

 cart.    s( 2) = ( -1.0000000  0.0000000  0.0000000 )
                  (  0.0000000 -1.0000000  0.0000000 )
                  (  0.0000000  0.0000000  1.0000000 )


      isym =  3     180 deg rotation - cart. axis [0,1,0]        

 cryst.   s( 3) = (    -1          1         -1      )
                  (     0          0         -1      )
                  (     0         -1          0      )

 cart.    s( 3) = ( -1.0000000  0.0000000  0.0000000 )
                  (  0.0000000  1.0000000  0.0000000 )
                  (  0.0000000  0.0000000 -1.0000000 )


      isym =  4     180 deg rotation - cart. axis [1,0,0]        

 cryst.   s( 4) = (     0         -1          0      )
                  (    -1          0          0      )
                  (    -1          1         -1      )

 cart.    s( 4) = (  1.0000000  0.0000000  0.0000000 )
                  (  0.0000000 -1.0000000  0.0000000 )
                  (  0.0000000  0.0000000 -1.0000000 )


      isym =  5     180 deg rotation - cart. axis [1,1,0]        

 cryst.   s( 5) = (     0          0         -1      )
                  (     0         -1          0      )
                  (    -1          0          0      )

 cart.    s( 5) = (  0.0000000  1.0000000  0.0000000 )
                  (  1.0000000  0.0000000  0.0000000 )
                  (  0.0000000  0.0000000 -1.0000000 )


      isym =  6     180 deg rotation - cart. axis [1,-1,0]       

 cryst.   s( 6) = (    -1          0          0      )
                  (    -1          1         -1      )
                  (     0          0         -1      )

 cart.    s( 6) = (  0.0000000 -1.0000000  0.0000000 )
                  ( -1.0000000  0.0000000  0.0000000 )
                  (  0.0000000  0.0000000 -1.0000000 )


      isym =  7      90 deg rotation - cart. axis [0,0,-1]       

 cryst.   s( 7) = (     1         -1          1      )
                  (     1          0          0      )
                  (     0          1          0      )

 cart.    s( 7) = (  0.0000000  1.0000000  0.0000000 )
                  ( -1.0000000  0.0000000  0.0000000 )
                  (  0.0000000  0.0000000  1.0000000 )


      isym =  8      90 deg rotation - cart. axis [0,0,1]        

 cryst.   s( 8) = (     0          1          0      )
                  (     0          0          1      )
                  (     1         -1          1      )

 cart.    s( 8) = (  0.0000000 -1.0000000  0.0000000 )
                  (  1.0000000  0.0000000  0.0000000 )
                  (  0.0000000  0.0000000  1.0000000 )


      isym =  9     180 deg rotation - cart. axis [1,0,1]        

 cryst.   s( 9) = (     1         -1          1      )
                  (     0         -1          0      )
                  (     0          0         -1      )

 cart.    s( 9) = (  0.0000000  0.0000000  1.0000000 )
                  (  0.0000000 -1.0000000  0.0000000 )
                  (  1.0000000  0.0000000  0.0000000 )


      isym = 10     180 deg rotation - cart. axis [-1,0,1]       

 cryst.   s(10) = (    -1          0          0      )
                  (     0          0          1      )
                  (     0          1          0      )

 cart.    s(10) = (  0.0000000  0.0000000 -1.0000000 )
                  (  0.0000000 -1.0000000  0.0000000 )
                  ( -1.0000000  0.0000000  0.0000000 )


      isym = 11      90 deg rotation - cart. axis [0,1,0]        

 cryst.   s(11) = (     0          0         -1      )
                  (     1          0          0      )
                  (     1         -1          1      )

 cart.    s(11) = (  0.0000000  0.0000000  1.0000000 )
                  (  0.0000000  1.0000000  0.0000000 )
                  ( -1.0000000  0.0000000  0.0000000 )


      isym = 12      90 deg rotation - cart. axis [0,-1,0]       

 cryst.   s(12) = (     0          1          0      )
                  (    -1          1         -1      )
                  (    -1          0          0      )

 cart.    s(12) = (  0.0000000  0.0000000 -1.0000000 )
                  (  0.0000000  1.0000000  0.0000000 )
                  (  1.0000000  0.0000000  0.0000000 )


      isym = 13     180 deg rotation - cart. axis [0,1,1]        

 cryst.   s(13) = (     0          1          0      )
                  (     1          0          0      )
                  (     0          0         -1      )

 cart.    s(13) = ( -1.0000000  0.0000000  0.0000000 )
                  (  0.0000000  0.0000000  1.0000000 )
                  (  0.0000000  1.0000000  0.0000000 )


      isym = 14     180 deg rotation - cart. axis [0,1,-1]       

 cryst.   s(14) = (    -1          0          0      )
                  (     0         -1          0      )
                  (     1         -1          1      )

 cart.    s(14) = ( -1.0000000  0.0000000  0.0000000 )
                  (  0.0000000  0.0000000 -1.0000000 )
                  (  0.0000000 -1.0000000  0.0000000 )


      isym = 15      90 deg rotation - cart. axis [-1,0,0]       

 cryst.   s(15) = (     0          0         -1      )
                  (    -1          1         -1      )
                  (     0          1          0      )

 cart.    s(15) = (  1.0000000  0.0000000  0.0000000 )
                  (  0.0000000  0.0000000  1.0000000 )
                  (  0.0000000 -1.0000000  0.0000000 )


      isym = 16      90 deg rotation - cart. axis [1,0,0]        

 cryst.   s(16) = (     1         -1          1      )
                  (     0          0          1      )
                  (    -1          0          0      )

 cart.    s(16) = (  1.0000000  0.0000000  0.0000000 )
                  (  0.0000000  0.0000000 -1.0000000 )
                  (  0.0000000  1.0000000  0.0000000 )


      isym = 17     120 deg rotation - cart. axis [-1,-1,-1]     

 cryst.   s(17) = (     1          0          0      )
                  (     0          0         -1      )
                  (    -1          1         -1      )

 cart.    s(17) = (  0.0000000  1.0000000  0.0000000 )
                  (  0.0000000  0.0000000  1.0000000 )
                  (  1.0000000  0.0000000  0.0000000 )


      isym = 18     120 deg rotation - cart. axis [-1,1,1]       

 cryst.   s(18) = (    -1          1         -1      )
                  (     0          1          0      )
                  (     1          0          0      )

 cart.    s(18) = (  0.0000000 -1.0000000  0.0000000 )
                  (  0.0000000  0.0000000  1.0000000 )
                  ( -1.0000000  0.0000000  0.0000000 )


      isym = 19     120 deg rotation - cart. axis [1,1,-1]       

 cryst.   s(19) = (     0         -1          0      )
                  (     1         -1          1      )
                  (     0          0          1      )

 cart.    s(19) = (  0.0000000  1.0000000  0.0000000 )
                  (  0.0000000  0.0000000 -1.0000000 )
                  ( -1.0000000  0.0000000  0.0000000 )


      isym = 20     120 deg rotation - cart. axis [1,-1,1]       

 cryst.   s(20) = (     0          0          1      )
                  (    -1          0          0      )
                  (     0         -1          0      )

 cart.    s(20) = (  0.0000000 -1.0000000  0.0000000 )
                  (  0.0000000  0.0000000 -1.0000000 )
                  (  1.0000000  0.0000000  0.0000000 )


      isym = 21     120 deg rotation - cart. axis [1,1,1]        

 cryst.   s(21) = (     1          0          0      )
                  (     1         -1          1      )
                  (     0         -1          0      )

 cart.    s(21) = (  0.0000000  0.0000000  1.0000000 )
                  (  1.0000000  0.0000000  0.0000000 )
                  (  0.0000000  1.0000000  0.0000000 )


      isym = 22     120 deg rotation - cart. axis [-1,1,-1]      

 cryst.   s(22) = (     0         -1          0      )
                  (     0          0         -1      )
                  (     1          0          0      )

 cart.    s(22) = (  0.0000000  0.0000000  1.0000000 )
                  ( -1.0000000  0.0000000  0.0000000 )
                  (  0.0000000 -1.0000000  0.0000000 )


      isym = 23     120 deg rotation - cart. axis [1,-1,-1]      

 cryst.   s(23) = (     0          0          1      )
                  (     0          1          0      )
                  (    -1          1         -1      )

 cart.    s(23) = (  0.0000000  0.0000000 -1.0000000 )
                  ( -1.0000000  0.0000000  0.0000000 )
                  (  0.0000000  1.0000000  0.0000000 )


      isym = 24     120 deg rotation - cart. axis [-1,-1,1]      

 cryst.   s(24) = (    -1          1         -1      )
                  (    -1          0          0      )
                  (     0          0          1      )

 cart.    s(24) = (  0.0000000  0.0000000 -1.0000000 )
                  (  1.0000000  0.0000000  0.0000000 )
                  (  0.0000000 -1.0000000  0.0000000 )


      isym = 25     inversion                                    

 cryst.   s(25) = (    -1          0          0      )
                  (     0         -1          0      )
                  (     0          0         -1      )

 cart.    s(25) = ( -1.0000000  0.0000000  0.0000000 )
                  (  0.0000000 -1.0000000  0.0000000 )
                  (  0.0000000  0.0000000 -1.0000000 )


      isym = 26     inv. 180 deg rotation - cart. axis [0,0,1]   

 cryst.   s(26) = (     0          0         -1      )
                  (    -1          1         -1      )
                  (    -1          0          0      )

 cart.    s(26) = (  1.0000000  0.0000000  0.0000000 )
                  (  0.0000000  1.0000000  0.0000000 )
                  (  0.0000000  0.0000000 -1.0000000 )


      isym = 27     inv. 180 deg rotation - cart. axis [0,1,0]   

 cryst.   s(27) = (     1         -1          1      )
                  (     0          0          1      )
                  (     0          1          0      )

 cart.    s(27) = (  1.0000000  0.0000000  0.0000000 )
                  (  0.0000000 -1.0000000  0.0000000 )
                  (  0.0000000  0.0000000  1.0000000 )


      isym = 28     inv. 180 deg rotation - cart. axis [1,0,0]   

 cryst.   s(28) = (     0          1          0      )
                  (     1          0          0      )
                  (     1         -1          1      )

 cart.    s(28) = ( -1.0000000  0.0000000  0.0000000 )
                  (  0.0000000  1.0000000  0.0000000 )
                  (  0.0000000  0.0000000  1.0000000 )


      isym = 29     inv. 180 deg rotation - cart. axis [1,1,0]   

 cryst.   s(29) = (     0          0          1      )
                  (     0          1          0      )
                  (     1          0          0      )

 cart.    s(29) = (  0.0000000 -1.0000000  0.0000000 )
                  ( -1.0000000  0.0000000  0.0000000 )
                  (  0.0000000  0.0000000  1.0000000 )


      isym = 30     inv. 180 deg rotation - cart. axis [1,-1,0]  

 cryst.   s(30) = (     1          0          0      )
                  (     1         -1          1      )
                  (     0          0          1      )

 cart.    s(30) = (  0.0000000  1.0000000  0.0000000 )
                  (  1.0000000  0.0000000  0.0000000 )
                  (  0.0000000  0.0000000  1.0000000 )


      isym = 31     inv.  90 deg rotation - cart. axis [0,0,-1]  

 cryst.   s(31) = (    -1          1         -1      )
                  (    -1          0          0      )
                  (     0         -1          0      )

 cart.    s(31) = (  0.0000000 -1.0000000  0.0000000 )
                  (  1.0000000  0.0000000  0.0000000 )
                  (  0.0000000  0.0000000 -1.0000000 )


      isym = 32     inv.  90 deg rotation - cart. axis [0,0,1]   

 cryst.   s(32) = (     0         -1          0      )
                  (     0          0         -1      )
                  (    -1          1         -1      )

 cart.    s(32) = (  0.0000000  1.0000000  0.0000000 )
                  ( -1.0000000  0.0000000  0.0000000 )
                  (  0.0000000  0.0000000 -1.0000000 )


      isym = 33     inv. 180 deg rotation - cart. axis [1,0,1]   

 cryst.   s(33) = (    -1          1         -1      )
                  (     0          1          0      )
                  (     0          0          1      )

 cart.    s(33) = (  0.0000000  0.0000000 -1.0000000 )
                  (  0.0000000  1.0000000  0.0000000 )
                  ( -1.0000000  0.0000000  0.0000000 )


      isym = 34     inv. 180 deg rotation - cart. axis [-1,0,1]  

 cryst.   s(34) = (     1          0          0      )
                  (     0          0         -1      )
                  (     0         -1          0      )

 cart.    s(34) = (  0.0000000  0.0000000  1.0000000 )
                  (  0.0000000  1.0000000  0.0000000 )
                  (  1.0000000  0.0000000  0.0000000 )


      isym = 35     inv.  90 deg rotation - cart. axis [0,1,0]   

 cryst.   s(35) = (     0          0          1      )
                  (    -1          0          0      )
                  (    -1          1         -1      )

 cart.    s(35) = (  0.0000000  0.0000000 -1.0000000 )
                  (  0.0000000 -1.0000000  0.0000000 )
                  (  1.0000000  0.0000000  0.0000000 )


      isym = 36     inv.  90 deg rotation - cart. axis [0,-1,0]  

 cryst.   s(36) = (     0         -1          0      )
                  (     1         -1          1      )
                  (     1          0          0      )

 cart.    s(36) = (  0.0000000  0.0000000  1.0000000 )
                  (  0.0000000 -1.0000000  0.0000000 )
                  ( -1.0000000  0.0000000  0.0000000 )


      isym = 37     inv. 180 deg rotation - cart. axis [0,1,1]   

 cryst.   s(37) = (     0         -1          0      )
                  (    -1          0          0      )
                  (     0          0          1      )

 cart.    s(37) = (  1.0000000  0.0000000  0.0000000 )
                  (  0.0000000  0.0000000 -1.0000000 )
                  (  0.0000000 -1.0000000  0.0000000 )


      isym = 38     inv. 180 deg rotation - cart. axis [0,1,-1]  

 cryst.   s(38) = (     1          0          0      )
                  (     0          1          0      )
                  (    -1          1         -1      )

 cart.    s(38) = (  1.0000000  0.0000000  0.0000000 )
                  (  0.0000000  0.0000000  1.0000000 )
                  (  0.0000000  1.0000000  0.0000000 )


      isym = 39     inv.  90 deg rotation - cart. axis [-1,0,0]  

 cryst.   s(39) = (     0          0          1      )
                  (     1         -1          1      )
                  (     0         -1          0      )

 cart.    s(39) = ( -1.0000000  0.0000000  0.0000000 )
                  (  0.0000000  0.0000000 -1.0000000 )
                  (  0.0000000  1.0000000  0.0000000 )


      isym = 40     inv.  90 deg rotation - cart. axis [1,0,0]   

 cryst.   s(40) = (    -1          1         -1      )
                  (     0          0         -1      )
                  (     1          0          0      )

 cart.    s(40) = ( -1.0000000  0.0000000  0.0000000 )
                  (  0.0000000  0.0000000  1.0000000 )
                  (  0.0000000 -1.0000000  0.0000000 )


      isym = 41     inv. 120 deg rotation - cart. axis [-1,-1,-1]

 cryst.   s(41) = (    -1          0          0      )
                  (     0          0          1      )
                  (     1         -1          1      )

 cart.    s(41) = (  0.0000000 -1.0000000  0.0000000 )
                  (  0.0000000  0.0000000 -1.0000000 )
                  ( -1.0000000  0.0000000  0.0000000 )


      isym = 42     inv. 120 deg rotation - cart. axis [-1,1,1]  

 cryst.   s(42) = (     1         -1          1      )
                  (     0         -1          0      )
                  (    -1          0          0      )

 cart.    s(42) = (  0.0000000  1.0000000  0.0000000 )
                  (  0.0000000  0.0000000 -1.0000000 )
                  (  1.0000000  0.0000000  0.0000000 )


      isym = 43     inv. 120 deg rotation - cart. axis [1,1,-1]  

 cryst.   s(43) = (     0          1          0      )
                  (    -1          1         -1      )
                  (     0          0         -1      )

 cart.    s(43) = (  0.0000000 -1.0000000  0.0000000 )
                  (  0.0000000  0.0000000  1.0000000 )
                  (  1.0000000  0.0000000  0.0000000 )


      isym = 44     inv. 120 deg rotation - cart. axis [1,-1,1]  

 cryst.   s(44) = (     0          0         -1      )
                  (     1          0          0      )
                  (     0          1          0      )

 cart.    s(44) = (  0.0000000  1.0000000  0.0000000 )
                  (  0.0000000  0.0000000  1.0000000 )
                  ( -1.0000000  0.0000000  0.0000000 )


      isym = 45     inv. 120 deg rotation - cart. axis [1,1,1]   

 cryst.   s(45) = (    -1          0          0      )
                  (    -1          1         -1      )
                  (     0          1          0      )

 cart.    s(45) = (  0.0000000  0.0000000 -1.0000000 )
                  ( -1.0000000  0.0000000  0.0000000 )
                  (  0.0000000 -1.0000000  0.0000000 )


      isym = 46     inv. 120 deg rotation - cart. axis [-1,1,-1] 

 cryst.   s(46) = (     0          1          0      )
                  (     0          0          1      )
                  (    -1          0          0      )

 cart.    s(46) = (  0.0000000  0.0000000 -1.0000000 )
                  (  1.0000000  0.0000000  0.0000000 )
                  (  0.0000000  1.0000000  0.0000000 )


      isym = 47     inv. 120 deg rotation - cart. axis [1,-1,-1] 

 cryst.   s(47) = (     0          0         -1      )
                  (     0         -1          0      )
                  (     1         -1          1      )

 cart.    s(47) = (  0.0000000  0.0000000  1.0000000 )
                  (  1.0000000  0.0000000  0.0000000 )
                  (  0.0000000 -1.0000000  0.0000000 )


      isym = 48     inv. 120 deg rotation - cart. axis [-1,-1,1] 

 cryst.   s(48) = (     1         -1          1      )
                  (     1          0          0      )
                  (     0          0         -1      )

 cart.    s(48) = (  0.0000000  0.0000000  1.0000000 )
                  ( -1.0000000  0.0000000  0.0000000 )
                  (  0.0000000  1.0000000  0.0000000 )


     point group O_h (m-3m) 
     there are 10 classes
     the character table:

       E     8C3   3C2   6C4   6C2'  i     8S6   3s_h  6S4   6s_d 
A_1g   1.00  1.00  1.00  1.00  1.00  1.00  1.00  1.00  1.00  1.00
A_2g   1.00  1.00  1.00 -1.00 -1.00  1.00  1.00  1.00 -1.00 -1.00
E_g    2.00 -1.00  2.00  0.00  0.00  2.00 -1.00  2.00  0.00  0.00
T_1g   3.00  0.00 -1.00  1.00 -1.00  3.00  0.00 -1.00  1.00 -1.00
T_2g   3.00  0.00 -1.00 -1.00  1.00  3.00  0.00 -1.00 -1.00  1.00
A_1u   1.00  1.00  1.00  1.00  1.00 -1.00 -1.00 -1.00 -1.00 -1.00
A_2u   1.00  1.00  1.00 -1.00 -1.00 -1.00 -1.00 -1.00  1.00  1.00
E_u    2.00 -1.00  2.00  0.00  0.00 -2.00  1.00 -2.00  0.00  0.00
T_1u   3.00  0.00 -1.00  1.00 -1.00 -3.00  0.00  1.00 -1.00  1.00
T_2u   3.00  0.00 -1.00 -1.00  1.00 -3.00  0.00  1.00  1.00 -1.00

     the symmetry operations in each class and the name of the first element:

     E        1
          identity                                               
     8C3     17   19   20   18   24   21   22   23
          120 deg rotation - cart. axis [-1,-1,-1]               
     3C2      2    4    3
          180 deg rotation - cart. axis [0,0,1]                  
     6C4      7    8   15   16   12   11
           90 deg rotation - cart. axis [0,0,-1]                 
     6C2'     5    6   14   13   10    9
          180 deg rotation - cart. axis [1,1,0]                  
     i       25
          inversion                                              
     8S6     41   43   44   42   48   45   46   47
          inv. 120 deg rotation - cart. axis [-1,-1,-1]          
     3s_h    26   28   27
          inv. 180 deg rotation - cart. axis [0,0,1]             
     6S4     31   32   39   40   36   35
          inv.  90 deg rotation - cart. axis [0,0,-1]            
     6s_d    29   30   38   37   34   33
          inv. 180 deg rotation - cart. axis [1,1,0]             

   Cartesian axes

     site n.     atom                  positions (alat units)
         1        Li     tau(   1) = (   0.0000000   0.0000000   0.0000000  )

   Crystallographic axes

     site n.     atom                  positions (cryst. coord.)
         1        Li     tau(   1) = (  0.0000000  0.0000000  0.0000000  )

     number of k points=    72  Marzari-Vanderbilt smearing, width (Ry)=  0.0100
                       cart. coord. in units 2pi/alat
        k(    1) = (   0.0000000   0.0000000   0.0000000), wk =   0.0011574
        k(    2) = (  -0.0000000  -0.0846769   0.0846769), wk =   0.0138889
        k(    3) = (  -0.0000000  -0.1693537   0.1693537), wk =   0.0138889
        k(    4) = (   0.0000000  -0.2540306   0.2540306), wk =   0.0138889
        k(    5) = (  -0.0000000  -0.3387074   0.3387074), wk =   0.0138889
        k(    6) = (   0.0000000  -0.4233843   0.4233843), wk =   0.0138889
        k(    7) = (  -0.0000000   0.5080611  -0.5080611), wk =   0.0069444
        k(    8) = (  -0.0846769  -0.0846769   0.1693537), wk =   0.0277778
        k(    9) = (  -0.0846769  -0.1693537   0.2540306), wk =   0.0555556
        k(   10) = (  -0.0846769  -0.2540306   0.3387074), wk =   0.0555556
        k(   11) = (  -0.0846769  -0.3387074   0.4233843), wk =   0.0555556
        k(   12) = (  -0.0846769   0.5927380  -0.5080611), wk =   0.0555556
        k(   13) = (  -0.1693537  -0.1693537   0.3387074), wk =   0.0277778
        k(   14) = (  -0.1693537  -0.2540306   0.4233843), wk =   0.0555556
        k(   15) = (  -0.1693537   0.6774148  -0.5080611), wk =   0.0555556
        k(   16) = (  -0.1693537   0.5927380  -0.4233843), wk =   0.0277778
        k(   17) = (  -0.2540306   0.7620917  -0.5080611), wk =   0.0277778
        k(   18) = (  -0.2540306   0.6774148  -0.4233843), wk =   0.0555556
        k(   19) = (  -0.3387074   0.6774148  -0.3387074), wk =   0.0092593
        k(   20) = (  -0.0000000   0.0000000   0.1693537), wk =   0.0069444
        k(   21) = (  -0.0000000  -0.0846769   0.2540306), wk =   0.0277778
        k(   22) = (  -0.0000000  -0.1693537   0.3387074), wk =   0.0277778
        k(   23) = (   0.0000000  -0.2540306   0.4233843), wk =   0.0277778
        k(   24) = (   0.0000000  -0.3387074   0.5080611), wk =   0.0277778
        k(   25) = (   0.0000000   0.5927380  -0.4233843), wk =   0.0138889
        k(   26) = (  -0.0846769  -0.0846769   0.3387074), wk =   0.0277778
        k(   27) = (  -0.0846769  -0.1693537   0.4233843), wk =   0.0555556
        k(   28) = (  -0.0846769  -0.2540306   0.5080611), wk =   0.0555556
        k(   29) = (  -0.0846769   0.6774148  -0.4233843), wk =   0.0555556
        k(   30) = (  -0.1693537   0.1693537   0.1693537), wk =   0.0092593
        k(   31) = (  -0.1693537  -0.1693537   0.5080611), wk =   0.0277778
        k(   32) = (  -0.1693537   0.7620917  -0.4233843), wk =   0.0555556
        k(   33) = (  -0.1693537   0.6774148  -0.3387074), wk =   0.0277778
        k(   34) = (  -0.2540306   0.2540306   0.1693537), wk =   0.0277778
        k(   35) = (  -0.2540306   0.7620917  -0.3387074), wk =   0.0277778
        k(   36) = (  -0.3387074   0.3387074   0.1693537), wk =   0.0277778
        k(   37) = (  -0.3387074   0.2540306   0.2540306), wk =   0.0277778
        k(   38) = (   0.5927380  -0.5927380   0.1693537), wk =   0.0277778
        k(   39) = (   0.5927380  -0.6774148   0.2540306), wk =   0.0555556
        k(   40) = (   0.5080611  -0.5080611   0.1693537), wk =   0.0138889
        k(   41) = (   0.5080611  -0.5927380   0.2540306), wk =   0.0555556
        k(   42) = (   0.5080611  -0.6774148   0.3387074), wk =   0.0277778
        k(   43) = (   0.4233843  -0.5927380   0.3387074), wk =   0.0277778
        k(   44) = (  -0.0000000   0.0000000   0.3387074), wk =   0.0069444
        k(   45) = (   0.0000000  -0.0846769   0.4233843), wk =   0.0277778
        k(   46) = (  -0.0000000  -0.1693537   0.5080611), wk =   0.0277778
        k(   47) = (   0.0000000  -0.2540306   0.5927380), wk =   0.0277778
        k(   48) = (   0.0000000   0.6774148  -0.3387074), wk =   0.0138889
        k(   49) = (  -0.0846769  -0.0846769   0.5080611), wk =   0.0277778
        k(   50) = (  -0.0846769  -0.1693537   0.5927380), wk =   0.0555556
        k(   51) = (  -0.0846769   0.7620917  -0.3387074), wk =   0.0555556
        k(   52) = (  -0.1693537   0.8467685  -0.3387074), wk =   0.0277778
        k(   53) = (  -0.1693537   0.7620917  -0.2540306), wk =   0.0277778
        k(   54) = (   0.6774148  -0.6774148   0.3387074), wk =   0.0092593
        k(   55) = (   0.5927380  -0.5927380   0.3387074), wk =   0.0277778
        k(   56) = (   0.5080611  -0.5080611   0.3387074), wk =   0.0138889
        k(   57) = (   0.5080611  -0.5927380   0.4233843), wk =   0.0277778
        k(   58) = (   0.0000000   0.0000000   0.5080611), wk =   0.0069444
        k(   59) = (   0.0000000  -0.0846769   0.5927380), wk =   0.0277778
        k(   60) = (   0.0000000  -0.1693537   0.6774148), wk =   0.0277778
        k(   61) = (  -0.0000000   0.7620917  -0.2540306), wk =   0.0138889
        k(   62) = (  -0.0846769  -0.0846769   0.6774148), wk =   0.0277778
        k(   63) = (  -0.0846769   0.8467685  -0.2540306), wk =   0.0555556
        k(   64) = (  -0.1693537   0.8467685  -0.1693537), wk =   0.0092593
        k(   65) = (   0.5080611  -0.5080611   0.5080611), wk =   0.0023148
        k(   66) = (  -0.0000000   0.0000000   0.6774148), wk =   0.0069444
        k(   67) = (   0.0000000  -0.0846769   0.7620917), wk =   0.0277778
        k(   68) = (   0.0000000   0.8467685  -0.1693537), wk =   0.0138889
        k(   69) = (  -0.0846769   0.9314454  -0.1693537), wk =   0.0277778
        k(   70) = (   0.0000000  -0.0000000   0.8467685), wk =   0.0069444
        k(   71) = (  -0.0000000   0.9314454  -0.0846769), wk =   0.0138889
        k(   72) = (  -0.0000000  -0.0000000  -1.0161223), wk =   0.0011574

                       cryst. coord.
        k(    1) = (   0.0000000   0.0000000   0.0000000), wk =   0.0011574
        k(    2) = (  -0.0000000  -0.0000000   0.0833333), wk =   0.0138889
        k(    3) = (  -0.0000000  -0.0000000   0.1666667), wk =   0.0138889
        k(    4) = (  -0.0000000  -0.0000000   0.2500000), wk =   0.0138889
        k(    5) = (  -0.0000000  -0.0000000   0.3333333), wk =   0.0138889
        k(    6) = (   0.0000000   0.0000000   0.4166667), wk =   0.0138889
        k(    7) = (   0.0000000   0.0000000  -0.5000000), wk =   0.0069444
        k(    8) = (  -0.0000000   0.0833333   0.1666667), wk =   0.0277778
        k(    9) = (   0.0000000   0.0833333   0.2500000), wk =   0.0555556
        k(   10) = (  -0.0000000   0.0833333   0.3333333), wk =   0.0555556
        k(   11) = (  -0.0000000   0.0833333   0.4166667), wk =   0.0555556
        k(   12) = (  -0.0000000   0.0833333  -0.5000000), wk =   0.0555556
        k(   13) = (  -0.0000000   0.1666667   0.3333333), wk =   0.0277778
        k(   14) = (   0.0000000   0.1666667   0.4166667), wk =   0.0555556
        k(   15) = (   0.0000000   0.1666667  -0.5000000), wk =   0.0555556
        k(   16) = (  -0.0000000   0.1666667  -0.4166667), wk =   0.0277778
        k(   17) = (  -0.0000000   0.2500000  -0.5000000), wk =   0.0277778
        k(   18) = (   0.0000000   0.2500000  -0.4166667), wk =   0.0555556
        k(   19) = (   0.0000000   0.3333333  -0.3333333), wk =   0.0092593
        k(   20) = (   0.0833333   0.0833333   0.0833333), wk =   0.0069444
        k(   21) = (   0.0833333   0.0833333   0.1666667), wk =   0.0277778
        k(   22) = (   0.0833333   0.0833333   0.2500000), wk =   0.0277778
        k(   23) = (   0.0833333   0.0833333   0.3333333), wk =   0.0277778
        k(   24) = (   0.0833333   0.0833333   0.4166667), wk =   0.0277778
        k(   25) = (   0.0833333   0.0833333  -0.5000000), wk =   0.0138889
        k(   26) = (   0.0833333   0.1666667   0.2500000), wk =   0.0277778
        k(   27) = (   0.0833333   0.1666667   0.3333333), wk =   0.0555556
        k(   28) = (   0.0833333   0.1666667   0.4166667), wk =   0.0555556
        k(   29) = (   0.0833333   0.1666667  -0.5000000), wk =   0.0555556
        k(   30) = (   0.0833333   0.2500000   0.0833333), wk =   0.0092593
        k(   31) = (   0.0833333   0.2500000   0.4166667), wk =   0.0277778
        k(   32) = (   0.0833333   0.2500000  -0.5000000), wk =   0.0555556
        k(   33) = (   0.0833333   0.2500000  -0.4166667), wk =   0.0277778
        k(   34) = (   0.0833333   0.3333333   0.0833333), wk =   0.0277778
        k(   35) = (   0.0833333   0.3333333  -0.4166667), wk =   0.0277778
        k(   36) = (   0.0833333   0.4166667   0.0833333), wk =   0.0277778
        k(   37) = (   0.0833333   0.4166667   0.1666667), wk =   0.0277778
        k(   38) = (   0.0833333  -0.5000000   0.0833333), wk =   0.0277778
        k(   39) = (   0.0833333  -0.5000000   0.1666667), wk =   0.0555556
        k(   40) = (   0.0833333  -0.4166667   0.0833333), wk =   0.0138889
        k(   41) = (   0.0833333  -0.4166667   0.1666667), wk =   0.0555556
        k(   42) = (   0.0833333  -0.4166667   0.2500000), wk =   0.0277778
        k(   43) = (   0.0833333  -0.3333333   0.2500000), wk =   0.0277778
        k(   44) = (   0.1666667   0.1666667   0.1666667), wk =   0.0069444
        k(   45) = (   0.1666667   0.1666667   0.2500000), wk =   0.0277778
        k(   46) = (   0.1666667   0.1666667   0.3333333), wk =   0.0277778
        k(   47) = (   0.1666667   0.1666667   0.4166667), wk =   0.0277778
        k(   48) = (   0.1666667   0.1666667  -0.5000000), wk =   0.0138889
        k(   49) = (   0.1666667   0.2500000   0.3333333), wk =   0.0277778
        k(   50) = (   0.1666667   0.2500000   0.4166667), wk =   0.0555556
        k(   51) = (   0.1666667   0.2500000  -0.5000000), wk =   0.0555556
        k(   52) = (   0.1666667   0.3333333  -0.5000000), wk =   0.0277778
        k(   53) = (   0.1666667   0.3333333  -0.4166667), wk =   0.0277778
        k(   54) = (   0.1666667  -0.5000000   0.1666667), wk =   0.0092593
        k(   55) = (   0.1666667  -0.4166667   0.1666667), wk =   0.0277778
        k(   56) = (   0.1666667  -0.3333333   0.1666667), wk =   0.0138889
        k(   57) = (   0.1666667  -0.3333333   0.2500000), wk =   0.0277778
        k(   58) = (   0.2500000   0.2500000   0.2500000), wk =   0.0069444
        k(   59) = (   0.2500000   0.2500000   0.3333333), wk =   0.0277778
        k(   60) = (   0.2500000   0.2500000   0.4166667), wk =   0.0277778
        k(   61) = (   0.2500000   0.2500000  -0.5000000), wk =   0.0138889
        k(   62) = (   0.2500000   0.3333333   0.4166667), wk =   0.0277778
        k(   63) = (   0.2500000   0.3333333  -0.5000000), wk =   0.0555556
        k(   64) = (   0.2500000   0.4166667  -0.4166667), wk =   0.0092593
        k(   65) = (   0.2500000  -0.2500000   0.2500000), wk =   0.0023148
        k(   66) = (   0.3333333   0.3333333   0.3333333), wk =   0.0069444
        k(   67) = (   0.3333333   0.3333333   0.4166667), wk =   0.0277778
        k(   68) = (   0.3333333   0.3333333  -0.5000000), wk =   0.0138889
        k(   69) = (   0.3333333   0.4166667  -0.5000000), wk =   0.0277778
        k(   70) = (   0.4166667   0.4166667   0.4166667), wk =   0.0069444
        k(   71) = (   0.4166667   0.4166667  -0.5000000), wk =   0.0138889
        k(   72) = (  -0.5000000  -0.5000000  -0.5000000), wk =   0.0011574

     Dense  grid:    28897 G-vectors     FFT dimensions: (  45,  45,  45)

     Smooth grid:    10833 G-vectors     FFT dimensions: (  30,  30,  30)

     Dynamical RAM for                 wfc:       0.03 MB

     Dynamical RAM for     wfc (w. buffer):       2.26 MB

     Dynamical RAM for           str. fact:       0.11 MB

     Dynamical RAM for           local pot:       0.06 MB

     Dynamical RAM for          nlocal pot:       0.05 MB

     Dynamical RAM for                qrad:       1.60 MB

     Dynamical RAM for          rho,v,vnew:       0.89 MB

     Dynamical RAM for               rhoin:       0.30 MB

     Dynamical RAM for            rho*nmix:       1.76 MB

     Dynamical RAM for           G-vectors:       0.43 MB

     Dynamical RAM for          h,s,v(r/c):       0.01 MB

     Dynamical RAM for          <psi|beta>:       0.00 MB

     Dynamical RAM for                 psi:       0.06 MB

     Dynamical RAM for                hpsi:       0.06 MB

     Dynamical RAM for                spsi:       0.06 MB

     Dynamical RAM for      wfcinit/wfcrot:       0.06 MB

     Dynamical RAM for           addusdens:       5.84 MB

     Dynamical RAM for          addusforce:       5.90 MB

     Dynamical RAM for         addusstress:       6.50 MB

     Estimated static dynamical RAM per process >       6.84 MB

     Estimated max dynamical RAM per process >      15.10 MB

     Estimated total dynamical RAM >      60.42 MB

     Initial potential from superposition of free atoms

     starting charge       2.5493, renormalised to       3.0000
     Starting wfcs are    5 randomized atomic wfcs +    1 random wfcs

     total cpu time spent up to now is        5.8 secs

     Self-consistent Calculation

     iteration #  1     ecut=    70.00 Ry     beta= 0.30
     Davidson diagonalization with overlap

---- Real-time Memory Report at c_bands before calling an iterative solver
             0 MiB given to the printing process from OS
             0 MiB allocation reported by mallinfo(arena+hblkhd)
             0 MiB available memory on the node where the printing process lives
------------------
     c_bands:  1 eigenvalues not converged
     c_bands:  3 eigenvalues not converged
     c_bands:  1 eigenvalues not converged
     c_bands:  1 eigenvalues not converged
     c_bands:  3 eigenvalues not converged
     c_bands:  1 eigenvalues not converged
     c_bands:  1 eigenvalues not converged
     c_bands:  1 eigenvalues not converged
     c_bands:  1 eigenvalues not converged
     c_bands:  1 eigenvalues not converged
     c_bands:  1 eigenvalues not converged
     c_bands:  1 eigenvalues not converged
     c_bands:  3 eigenvalues not converged
     c_bands:  1 eigenvalues not converged
     c_bands:  1 eigenvalues not converged
     c_bands:  1 eigenvalues not converged
     c_bands:  1 eigenvalues not converged
     c_bands:  1 eigenvalues not converged
     c_bands:  1 eigenvalues not converged
     c_bands:  1 eigenvalues not converged
     c_bands:  1 eigenvalues not converged
     c_bands:  1 eigenvalues not converged
     c_bands:  1 eigenvalues not converged
     c_bands:  1 eigenvalues not converged
     c_bands:  1 eigenvalues not converged
     c_bands:  1 eigenvalues not converged
     c_bands:  1 eigenvalues not converged
     c_bands:  1 eigenvalues not converged
     c_bands:  1 eigenvalues not converged
     c_bands:  1 eigenvalues not converged
     c_bands:  1 eigenvalues not converged
     c_bands:  1 eigenvalues not converged
     c_bands:  1 eigenvalues not converged
     c_bands:  1 eigenvalues not converged
     c_bands:  1 eigenvalues not converged
     c_bands:  1 eigenvalues not converged
     c_bands:  1 eigenvalues not converged
     ethr =  1.00E-06,  avg # of iterations = 18.2

     total cpu time spent up to now is        6.5 secs

     total energy              =     -14.51892225 Ry
     estimated scf accuracy    <       0.16738163 Ry

     iteration #  2     ecut=    70.00 Ry     beta= 0.30
     Davidson diagonalization with overlap

---- Real-time Memory Report at c_bands before calling an iterative solver
             0 MiB given to the printing process from OS
             0 MiB allocation reported by mallinfo(arena+hblkhd)
             0 MiB available memory on the node where the printing process lives
------------------
     ethr =  5.58E-03,  avg # of iterations =  1.0

     total cpu time spent up to now is        6.6 secs

     total energy              =     -14.46437853 Ry
     estimated scf accuracy    <       0.07199274 Ry

     iteration #  3     ecut=    70.00 Ry     beta= 0.30
     Davidson diagonalization with overlap

---- Real-time Memory Report at c_bands before calling an iterative solver
             0 MiB given to the printing process from OS
             0 MiB allocation reported by mallinfo(arena+hblkhd)
             0 MiB available memory on the node where the printing process lives
------------------
     ethr =  2.40E-03,  avg # of iterations =  1.1

     total cpu time spent up to now is        6.7 secs

     total energy              =     -14.47072003 Ry
     estimated scf accuracy    <       0.00019745 Ry

     iteration #  4     ecut=    70.00 Ry     beta= 0.30
     Davidson diagonalization with overlap

---- Real-time Memory Report at c_bands before calling an iterative solver
             0 MiB given to the printing process from OS
             0 MiB allocation reported by mallinfo(arena+hblkhd)
             0 MiB available memory on the node where the printing process lives
------------------
     c_bands:  1 eigenvalues not converged
     c_bands:  1 eigenvalues not converged
     ethr =  6.58E-06,  avg # of iterations =  6.8

     total cpu time spent up to now is        7.0 secs

     total energy              =     -14.47174709 Ry
     estimated scf accuracy    <       0.00005911 Ry

     iteration #  5     ecut=    70.00 Ry     beta= 0.30
     Davidson diagonalization with overlap

---- Real-time Memory Report at c_bands before calling an iterative solver
             0 MiB given to the printing process from OS
             0 MiB allocation reported by mallinfo(arena+hblkhd)
             0 MiB available memory on the node where the printing process lives
------------------
     ethr =  1.97E-06,  avg # of iterations =  1.9

     total cpu time spent up to now is        7.1 secs

     total energy              =     -14.47175572 Ry
     estimated scf accuracy    <       0.00000092 Ry

     iteration #  6     ecut=    70.00 Ry     beta= 0.30
     Davidson diagonalization with overlap

---- Real-time Memory Report at c_bands before calling an iterative solver
             0 MiB given to the printing process from OS
             0 MiB allocation reported by mallinfo(arena+hblkhd)
             0 MiB available memory on the node where the printing process lives
------------------
     ethr =  3.08E-08,  avg # of iterations =  2.8

     total cpu time spent up to now is        7.3 secs

     total energy              =     -14.47175653 Ry
     estimated scf accuracy    <       0.00000040 Ry

     iteration #  7     ecut=    70.00 Ry     beta= 0.30
     Davidson diagonalization with overlap

---- Real-time Memory Report at c_bands before calling an iterative solver
             0 MiB given to the printing process from OS
             0 MiB allocation reported by mallinfo(arena+hblkhd)
             0 MiB available memory on the node where the printing process lives
------------------
     ethr =  1.33E-08,  avg # of iterations =  1.3

     total cpu time spent up to now is        7.4 secs

     total energy              =     -14.47175658 Ry
     estimated scf accuracy    <       0.00000002 Ry

     iteration #  8     ecut=    70.00 Ry     beta= 0.30
     Davidson diagonalization with overlap

---- Real-time Memory Report at c_bands before calling an iterative solver
             0 MiB given to the printing process from OS
             0 MiB allocation reported by mallinfo(arena+hblkhd)
             0 MiB available memory on the node where the printing process lives
------------------
     ethr =  6.08E-10,  avg # of iterations =  2.0

     total cpu time spent up to now is        7.5 secs

     total energy              =     -14.47175657 Ry
     estimated scf accuracy    <       0.00000003 Ry

     iteration #  9     ecut=    70.00 Ry     beta= 0.30
     Davidson diagonalization with overlap

---- Real-time Memory Report at c_bands before calling an iterative solver
             0 MiB given to the printing process from OS
             0 MiB allocation reported by mallinfo(arena+hblkhd)
             0 MiB available memory on the node where the printing process lives
------------------
     ethr =  6.08E-10,  avg # of iterations =  1.9

     total cpu time spent up to now is        7.7 secs

     total energy              =     -14.47175658 Ry
     estimated scf accuracy    <          3.5E-09 Ry

     iteration # 10     ecut=    70.00 Ry     beta= 0.30
     Davidson diagonalization with overlap

---- Real-time Memory Report at c_bands before calling an iterative solver
             0 MiB given to the printing process from OS
             0 MiB allocation reported by mallinfo(arena+hblkhd)
             0 MiB available memory on the node where the printing process lives
------------------
     ethr =  1.17E-10,  avg # of iterations =  1.0

     total cpu time spent up to now is        7.8 secs

     total energy              =     -14.47175658 Ry
     estimated scf accuracy    <          1.5E-12 Ry

     iteration # 11     ecut=    70.00 Ry     beta= 0.30
     Davidson diagonalization with overlap

---- Real-time Memory Report at c_bands before calling an iterative solver
             0 MiB given to the printing process from OS
             0 MiB allocation reported by mallinfo(arena+hblkhd)
             0 MiB available memory on the node where the printing process lives
------------------
     ethr =  1.00E-13,  avg # of iterations =  4.0

     total cpu time spent up to now is        8.0 secs

     total energy              =     -14.47175658 Ry
     estimated scf accuracy    <          1.3E-11 Ry

     iteration # 12     ecut=    70.00 Ry     beta= 0.30
     Davidson diagonalization with overlap

---- Real-time Memory Report at c_bands before calling an iterative solver
             0 MiB given to the printing process from OS
             0 MiB allocation reported by mallinfo(arena+hblkhd)
             0 MiB available memory on the node where the printing process lives
------------------
     ethr =  1.00E-13,  avg # of iterations =  3.1

     total cpu time spent up to now is        8.1 secs

     total energy              =     -14.47175658 Ry
     estimated scf accuracy    <          1.3E-11 Ry

     iteration # 13     ecut=    70.00 Ry     beta= 0.30
     Davidson diagonalization with overlap

---- Real-time Memory Report at c_bands before calling an iterative solver
             0 MiB given to the printing process from OS
             0 MiB allocation reported by mallinfo(arena+hblkhd)
             0 MiB available memory on the node where the printing process lives
------------------
     ethr =  1.00E-13,  avg # of iterations =  2.0

     total cpu time spent up to now is        8.2 secs

     End of self-consistent calculation

          k = 0.0000 0.0000 0.0000 (  1409 PWs)   bands (ev):

   -45.5822  -2.6345  15.5289  15.5289  15.5289  20.3073

     occupation numbers 
     1.0000   1.0000   0.0000   0.0000   0.0000   0.0000

          k =-0.0000-0.0847 0.0847 (  1377 PWs)   bands (ev):

   -45.5809  -2.5030  14.6316  14.9077  15.3001  18.7001

     occupation numbers 
     1.0000   1.0000   0.0000   0.0000   0.0000   0.0000

          k =-0.0000-0.1694 0.1694 (  1368 PWs)   bands (ev):

   -45.5774  -2.1079  12.2824  13.7714  14.6925  17.3633

     occupation numbers 
     1.0000   1.0000   0.0000   0.0000   0.0000   0.0000

          k = 0.0000-0.2540 0.2540 (  1360 PWs)   bands (ev):

   -45.5726  -1.4506   9.6201  12.7262  13.9535  16.1408

     occupation numbers 
     1.0000   1.0000   0.0000   0.0000   0.0000   0.0000

          k =-0.0000-0.3387 0.3387 (  1340 PWs)   bands (ev):

   -45.5678  -0.5466   7.1735  11.9372  13.3172  15.2636

     occupation numbers 
     1.0000   1.0000   0.0000   0.0000   0.0000   0.0000

          k = 0.0000-0.4234 0.4234 (  1348 PWs)   bands (ev):

   -45.5643   0.5140   5.1618  11.4530  12.9038  14.7364

     occupation numbers 
     1.0000   1.0008   0.0000   0.0000   0.0000   0.0000

          k =-0.0000 0.5081-0.5081 (  1352 PWs)   bands (ev):

   -45.5630   1.1823   4.1731  11.2901  12.7617  14.5605

     occupation numbers 
     1.0000   0.0010   0.0000   0.0000   0.0000   0.0000

          k =-0.0847-0.0847 0.1694 (  1372 PWs)   bands (ev):

   -45.5785  -2.2395  13.5209  13.5504  14.5911  17.9446

     occupation numbers 
     1.0000   1.0000   0.0000   0.0000   0.0000   0.0000

          k =-0.0847-0.1694 0.2540 (  1365 PWs)   bands (ev):

   -45.5743  -1.7121  10.9683  12.4505  13.6922  17.5971

     occupation numbers 
     1.0000   1.0000   0.0000   0.0000   0.0000   0.0000

          k =-0.0847-0.2540 0.3387 (  1356 PWs)   bands (ev):

   -45.5695  -0.9254   8.3950  11.5658  12.8801  16.9249

     occupation numbers 
     1.0000   1.0000   0.0000   0.0000   0.0000   0.0000

          k =-0.0847-0.3387 0.4234 (  1354 PWs)   bands (ev):

   -45.5654   0.0852   6.1365  10.9549  12.2932  16.3749

     occupation numbers 
     1.0000   1.0000   0.0000   0.0000   0.0000   0.0000

          k =-0.0847 0.5927-0.5081 (  1355 PWs)   bands (ev):

   -45.5630   1.1017   4.4847  10.6444  11.9898  16.0822

     occupation numbers 
     1.0000   0.0147   0.0000   0.0000   0.0000   0.0000

          k =-0.1694-0.1694 0.3387 (  1353 PWs)   bands (ev):

   -45.5702  -1.0515   9.4010  10.5426  12.8486  17.7000

     occupation numbers 
     1.0000   1.0000   0.0000   0.0000   0.0000   0.0000

          k =-0.1694-0.2540 0.4234 (  1357 PWs)   bands (ev):

   -45.5660  -0.1361   7.2356   9.5593  12.2200  17.8085

     occupation numbers 
     1.0000   1.0000   0.0000   0.0000   0.0000   0.0000

          k =-0.1694 0.6774-0.5081 (  1355 PWs)   bands (ev):

   -45.5630   0.9634   5.2555   9.0562  11.8225  17.7515

     occupation numbers 
     1.0000   0.2922   0.0000   0.0000   0.0000   0.0000

          k =-0.1694 0.5927-0.4234 (  1363 PWs)   bands (ev):

   -45.5619   1.7043   4.2111   8.8930  11.6868  17.7017

     occupation numbers 
     1.0000   0.0000   0.0000   0.0000   0.0000   0.0000

          k =-0.2540 0.7621-0.5081 (  1352 PWs)   bands (ev):

   -45.5630   0.9026   5.8524   8.1431  11.8103  18.4223

     occupation numbers 
     1.0000   0.6027   0.0000   0.0000   0.0000   0.0000

          k =-0.2540 0.6774-0.4234 (  1355 PWs)   bands (ev):

   -45.5612   2.0572   4.3681   7.5678  11.5990  18.8255

     occupation numbers 
     1.0000   0.0000   0.0000   0.0000   0.0000   0.0000

          k =-0.3387 0.6774-0.3387 (  1355 PWs)   bands (ev):

   -45.5606   3.2663   3.2663   7.0223  11.5253  20.0816

     occupation numbers 
     1.0000   0.0000   0.0000   0.0000   0.0000   0.0000

          k =-0.0000 0.0000 0.1694 (  1369 PWs)   bands (ev):

   -45.5796  -2.3708  14.2020  14.2020  14.9797  17.5372

     occupation numbers 
     1.0000   1.0000   0.0000   0.0000   0.0000   0.0000

          k =-0.0000-0.0847 0.2540 (  1364 PWs)   bands (ev):

   -45.5762  -1.9741  12.2438  12.9869  14.5239  16.4218

     occupation numbers 
     1.0000   1.0000   0.0000   0.0000   0.0000   0.0000

          k =-0.0000-0.1694 0.3387 (  1370 PWs)   bands (ev):

   -45.5715  -1.3137   9.6728  11.9024  13.8822  16.3805

     occupation numbers 
     1.0000   1.0000   0.0000   0.0000   0.0000   0.0000

          k = 0.0000-0.2540 0.4234 (  1356 PWs)   bands (ev):

   -45.5668  -0.4041   7.2495  11.0932  13.2814  16.4499

     occupation numbers 
     1.0000   1.0000   0.0000   0.0000   0.0000   0.0000

          k = 0.0000-0.3387 0.5081 (  1352 PWs)   bands (ev):

   -45.5633   0.6688   5.2367  10.5989  12.8853  15.9354

     occupation numbers 
     1.0000   1.0417   0.0000   0.0000   0.0000   0.0000

          k = 0.0000 0.5927-0.4234 (  1352 PWs)   bands (ev):

   -45.5621   1.3553   4.2330  10.4331  12.7488  15.7633

     occupation numbers 
     1.0000   0.0000   0.0000   0.0000   0.0000   0.0000

          k =-0.0847-0.0847 0.3387 (  1370 PWs)   bands (ev):

   -45.5722  -1.4425  10.7676  11.3284  14.1198  15.5813

     occupation numbers 
     1.0000   1.0000   0.0000   0.0000   0.0000   0.0000

          k =-0.0847-0.1694 0.4234 (  1363 PWs)   bands (ev):

   -45.5676  -0.6486   8.4696  10.2830  13.5770  15.6657

     occupation numbers 
     1.0000   1.0000   0.0000   0.0000   0.0000   0.0000

          k =-0.0847-0.2540 0.5081 (  1356 PWs)   bands (ev):

   -45.5636   0.3771   6.2643   9.6418  13.0722  16.1297

     occupation numbers 
     1.0000   1.0000   0.0000   0.0000   0.0000   0.0000

          k =-0.0847 0.6774-0.4234 (  1353 PWs)   bands (ev):

   -45.5613   1.4311   4.5981   9.3216  12.7955  16.4240

     occupation numbers 
     1.0000   0.0000   0.0000   0.0000   0.0000   0.0000

          k =-0.1694 0.1694 0.1694 (  1373 PWs)   bands (ev):

   -45.5754  -1.8446  12.3332  12.3332  12.6455  18.4072

     occupation numbers 
     1.0000   1.0000   0.0000   0.0000   0.0000   0.0000

          k =-0.1694-0.1694 0.5081 (  1357 PWs)   bands (ev):

   -45.5637   0.2762   7.0223   8.7821  13.3375  15.6550

     occupation numbers 
     1.0000   1.0000   0.0000   0.0000   0.0000   0.0000

          k =-0.1694 0.7621-0.4234 (  1355 PWs)   bands (ev):

   -45.5609   1.4058   5.2901   8.0801  13.0695  16.1811

     occupation numbers 
     1.0000   0.0000   0.0000   0.0000   0.0000   0.0000

          k =-0.1694 0.6774-0.3387 (  1355 PWs)   bands (ev):

   -45.5599   2.2217   4.2294   7.8801  12.9591  16.5470

     occupation numbers 
     1.0000   0.0000   0.0000   0.0000   0.0000   0.0000

          k =-0.2540 0.2540 0.1694 (  1357 PWs)   bands (ev):

   -45.5711  -1.1858   9.7132  11.2634  11.7925  18.5884

     occupation numbers 
     1.0000   1.0000   0.0000   0.0000   0.0000   0.0000

          k =-0.2540 0.7621-0.3387 (  1353 PWs)   bands (ev):

   -45.5593   2.6152   4.1217   7.2213  13.0488  16.8791

     occupation numbers 
     1.0000   0.0000   0.0000   0.0000   0.0000   0.0000

          k =-0.3387 0.3387 0.1694 (  1352 PWs)   bands (ev):

   -45.5669  -0.2741   7.2729  10.4616  11.1690  18.3993

     occupation numbers 
     1.0000   1.0000   0.0000   0.0000   0.0000   0.0000

          k =-0.3387 0.2540 0.2540 (  1356 PWs)   bands (ev):

   -45.5674  -0.3949   8.2545   9.3446  11.0701  19.5336

     occupation numbers 
     1.0000   1.0000   0.0000   0.0000   0.0000   0.0000

          k = 0.5927-0.5927 0.1694 (  1346 PWs)   bands (ev):

   -45.5637   0.8139   5.2416   9.9708  10.7846  18.1281

     occupation numbers 
     1.0000   1.0026   0.0000   0.0000   0.0000   0.0000

          k = 0.5927-0.6774 0.2540 (  1352 PWs)   bands (ev):

   -45.5642   0.6405   6.2405   8.4723  10.6193  19.9080

     occupation numbers 
     1.0000   1.0254   0.0000   0.0000   0.0000   0.0000

          k = 0.5081-0.5081 0.1694 (  1354 PWs)   bands (ev):

   -45.5626   1.5314   4.2064   9.8059  10.6548  18.0174

     occupation numbers 
     1.0000   0.0000   0.0000   0.0000   0.0000   0.0000

          k = 0.5081-0.5927 0.2540 (  1350 PWs)   bands (ev):

   -45.5623   1.7509   4.5496   8.1083  10.3933  19.9370

     occupation numbers 
     1.0000   0.0000   0.0000   0.0000   0.0000   0.0000

          k = 0.5081-0.6774 0.3387 (  1355 PWs)   bands (ev):

   -45.5622   1.7903   5.0022   7.2033  10.3257  21.0228

     occupation numbers 
     1.0000   0.0000   0.0000   0.0000   0.0000   0.0000

          k = 0.4234-0.5927 0.3387 (  1354 PWs)   bands (ev):

   -45.5615   2.7500   3.9412   6.8443  10.2289  21.2981

     occupation numbers 
     1.0000   0.0000   0.0000   0.0000   0.0000   0.0000

          k =-0.0000 0.0000 0.3387 (  1385 PWs)   bands (ev):

   -45.5729  -1.5722  11.7092  11.7092  14.1462  14.3586

     occupation numbers 
     1.0000   1.0000   0.0000   0.0000   0.0000   0.0000

          k = 0.0000-0.0847 0.4234 (  1363 PWs)   bands (ev):

   -45.5685  -0.9027   9.7803  10.5958  13.5096  14.1321

     occupation numbers 
     1.0000   1.0000   0.0000   0.0000   0.0000   0.0000

          k =-0.0000-0.1694 0.5081 (  1360 PWs)   bands (ev):

   -45.5641   0.0228   7.4790   9.7722  13.0209  14.7455

     occupation numbers 
     1.0000   1.0000   0.0000   0.0000   0.0000   0.0000

          k = 0.0000-0.2540 0.5927 (  1350 PWs)   bands (ev):

   -45.5609   1.1307   5.4745   9.2710  12.7033  15.6781

     occupation numbers 
     1.0000   0.0062   0.0000   0.0000   0.0000   0.0000

          k = 0.0000 0.6774-0.3387 (  1342 PWs)   bands (ev):

   -45.5597   1.8731   4.4261   9.1030  12.5930  16.3293

     occupation numbers 
     1.0000   0.0000   0.0000   0.0000   0.0000   0.0000

          k =-0.0847-0.0847 0.5081 (  1362 PWs)   bands (ev):

   -45.5643  -0.0953   8.4398   9.2636  13.2482  13.7530

     occupation numbers 
     1.0000   1.0000   0.0000   0.0000   0.0000   0.0000

          k =-0.0847-0.1694 0.5927 (  1349 PWs)   bands (ev):

   -45.5606   0.9568   6.5118   8.4950  13.0861  14.2530

     occupation numbers 
     1.0000   0.3213   0.0000   0.0000   0.0000   0.0000

          k =-0.0847 0.7621-0.3387 (  1348 PWs)   bands (ev):

   -45.5585   2.0827   4.8463   8.1547  12.8998  15.2589

     occupation numbers 
     1.0000   0.0000   0.0000   0.0000   0.0000   0.0000

          k =-0.1694 0.8468-0.3387 (  1346 PWs)   bands (ev):

   -45.5580   2.1187   5.3011   7.4612  13.8640  13.9960

     occupation numbers 
     1.0000   0.0000   0.0000   0.0000   0.0000   0.0000

          k =-0.1694 0.7621-0.2540 (  1355 PWs)   bands (ev):

   -45.5571   3.0793   4.2574   7.1530  13.7803  14.9340

     occupation numbers 
     1.0000   0.0000   0.0000   0.0000   0.0000   0.0000

          k = 0.6774-0.6774 0.3387 (  1343 PWs)   bands (ev):

   -45.5646   0.5276   7.4164   7.4164  10.1958  21.0172

     occupation numbers 
     1.0000   1.0013   0.0000   0.0000   0.0000   0.0000

          k = 0.5927-0.5927 0.3387 (  1347 PWs)   bands (ev):

   -45.5626   1.6805   5.4600   6.9086   9.8264  21.7904

     occupation numbers 
     1.0000   0.0000   0.0000   0.0000   0.0000   0.0000

          k = 0.5081-0.5081 0.3387 (  1352 PWs)   bands (ev):

   -45.5619   2.5775   4.2780   6.7388   9.7151  22.0207

     occupation numbers 
     1.0000   0.0000   0.0000   0.0000   0.0000   0.0000

          k = 0.5081-0.5927 0.4234 (  1354 PWs)   bands (ev):

   -45.5617   2.9373   4.4885   5.8297   9.5450  22.9175

     occupation numbers 
     1.0000   0.0000   0.0000   0.0000   0.0000   0.0000

          k = 0.0000 0.0000 0.5081 (  1365 PWs)   bands (ev):

   -45.5645  -0.2182   9.4692   9.4692  11.8854  13.6371

     occupation numbers 
     1.0000   1.0000   0.0000   0.0000   0.0000   0.0000

          k = 0.0000-0.0847 0.5927 (  1352 PWs)   bands (ev):

   -45.5604   0.7314   7.8196   8.6390  11.6343  13.6277

     occupation numbers 
     1.0000   1.0802   0.0000   0.0000   0.0000   0.0000

          k = 0.0000-0.1694 0.6774 (  1351 PWs)   bands (ev):

   -45.5575   1.8906   5.9009   8.1346  11.8677  14.1536

     occupation numbers 
     1.0000   0.0000   0.0000   0.0000   0.0000   0.0000

          k =-0.0000 0.7621-0.2540 (  1352 PWs)   bands (ev):

   -45.5564   2.7314   4.7834   7.9656  11.9469  15.2142

     occupation numbers 
     1.0000   0.0000   0.0000   0.0000   0.0000   0.0000

          k =-0.0847-0.0847 0.6774 (  1355 PWs)   bands (ev):

   -45.5571   1.8149   6.7387   7.6979  11.5292  13.5656

     occupation numbers 
     1.0000   0.0000   0.0000   0.0000   0.0000   0.0000

          k =-0.0847 0.8468-0.2540 (  1348 PWs)   bands (ev):

   -45.5552   3.0363   5.2434   7.2645  11.9792  13.8811

     occupation numbers 
     1.0000   0.0000   0.0000   0.0000   0.0000   0.0000

          k =-0.1694 0.8468-0.1694 (  1358 PWs)   bands (ev):

   -45.5544   4.2629   4.2629   6.7891  12.9753  12.9753

     occupation numbers 
     1.0000   0.0000   0.0000   0.0000   0.0000   0.0000

          k = 0.5081-0.5081 0.5081 (  1400 PWs)   bands (ev):

   -45.5615   4.3168   4.3168   4.3168   9.3337  24.5406

     occupation numbers 
     1.0000   0.0000   0.0000   0.0000   0.0000   0.0000

          k =-0.0000 0.0000 0.6774 (  1356 PWs)   bands (ev):

   -45.5568   1.7132   7.8054   7.8054  10.1186  13.3016

     occupation numbers 
     1.0000   0.0000   0.0000   0.0000   0.0000   0.0000

          k = 0.0000-0.0847 0.7621 (  1353 PWs)   bands (ev):

   -45.5541   2.9302   6.4919   7.2993  10.2549  12.9588

     occupation numbers 
     1.0000   0.0000   0.0000   0.0000   0.0000   0.0000

          k = 0.0000 0.8468-0.1694 (  1346 PWs)   bands (ev):

   -45.5531   3.9161   5.3271   7.1299  10.7035  12.6326

     occupation numbers 
     1.0000   0.0000   0.0000   0.0000   0.0000   0.0000

          k =-0.0847 0.9314-0.1694 (  1340 PWs)   bands (ev):

   -45.5524   4.2297   5.7091   6.7473  10.4889  11.8092

     occupation numbers 
     1.0000   0.0000   0.0000   0.0000   0.0000   0.0000

          k = 0.0000-0.0000 0.8468 (  1336 PWs)   bands (ev):

   -45.5516   4.2067   6.7925   6.7925   9.0584  11.3524

     occupation numbers 
     1.0000   0.0000   0.0000   0.0000   0.0000   0.0000

          k =-0.0000 0.9314-0.0847 (  1334 PWs)   bands (ev):

   -45.5507   5.3648   6.0121   6.6228   9.3848  10.1411

     occupation numbers 
     1.0000   0.0000   0.0000   0.0000   0.0000   0.0000

          k =-0.0000-0.0000-1.0161 (  1312 PWs)   bands (ev):

   -45.5498   6.4530   6.4530   6.4530   8.7050   8.7050

     occupation numbers 
     1.0000   0.0000   0.0000   0.0000   0.0000   0.0000

     the Fermi energy is     0.9402 ev

!    total energy              =     -14.47175658 Ry
     estimated scf accuracy    <          6.3E-13 Ry
     smearing contrib. (-TS)   =      -0.00010376 Ry
     internal energy E=F+TS    =     -14.47165282 Ry

     The total energy is F=E-TS. E is the sum of the following terms:
     one-electron contribution =      -9.71477351 Ry
     hartree contribution      =       3.66265119 Ry
     xc contribution           =      -3.37693125 Ry
     ewald contribution        =      -5.04259924 Ry

     convergence has been achieved in  13 iterations

     Forces acting on atoms (cartesian axes, Ry/au):

     atom    1 type  1   force =     0.00000000    0.00000000    0.00000000
     The non-local contrib.  to forces
     atom    1 type  1   force =    -0.00000000    0.00000000    0.00000000
     The ionic contribution  to forces
     atom    1 type  1   force =    -0.00000000   -0.00000000   -0.00000000
     The local contribution  to forces
     atom    1 type  1   force =     0.00000000   -0.00000000   -0.00000000
     The core correction contribution to forces
     atom    1 type  1   force =     0.00000000    0.00000000    0.00000000
     The Hubbard contrib.    to forces
     atom    1 type  1   force =     0.00000000    0.00000000    0.00000000
     The SCF correction term to forces
     atom    1 type  1   force =     0.00000000   -0.00000000    0.00000000

     Total force =     0.000000     Total SCF correction =     0.000000


     Computing stress (Cartesian axis) and pressure

          total   stress  (Ry/bohr**3)                   (kbar)     P=        0.02
   0.00000015  -0.00000000   0.00000000            0.02       -0.00        0.00
  -0.00000000   0.00000015  -0.00000000           -0.00        0.02       -0.00
   0.00000000  -0.00000000   0.00000015            0.00       -0.00        0.02

     kinetic stress (kbar)   2276.85      0.00     -0.00
                                0.00   2276.85      0.00
                               -0.00      0.00   2276.85

     local   stress (kbar)    328.94      0.00      0.00
                                0.00    328.94      0.00
                                0.00      0.00    328.94

     nonloc. stress (kbar)   -951.44      0.00     -0.00
                                0.00   -951.44      0.00
                               -0.00      0.00   -951.44

     hartree stress (kbar)   1310.80     -0.00      0.00
                               -0.00   1310.80      0.00
                                0.00      0.00   1310.80

     exc-cor stress (kbar)  -1160.47     -0.00     -0.00
                               -0.00  -1160.47     -0.00
                               -0.00     -0.00  -1160.47

     corecor stress (kbar)      0.00      0.00      0.00
                                0.00      0.00      0.00
                                0.00      0.00      0.00

     ewald   stress (kbar)  -1804.67     -0.00     -0.00
                               -0.00  -1804.67     -0.00
                               -0.00     -0.00  -1804.67

     hubbard stress (kbar)      0.00      0.00      0.00
                                0.00      0.00      0.00
                                0.00      0.00      0.00

     DFT-D   stress (kbar)      0.00      0.00      0.00
                                0.00      0.00      0.00
                                0.00      0.00      0.00

     XDM     stress (kbar)      0.00      0.00      0.00
                                0.00      0.00      0.00
                                0.00      0.00      0.00

     dft-nl  stress (kbar)      0.00      0.00      0.00
                                0.00      0.00      0.00
                                0.00      0.00      0.00

     TS-vdW  stress (kbar)      0.00      0.00      0.00
                                0.00      0.00      0.00
                                0.00      0.00      0.00

     MDB     stress (kbar)      0.00      0.00      0.00
                                0.00      0.00      0.00
                                0.00      0.00      0.00

     3D-RISM stress (kbar)      0.00      0.00      0.00
                                0.00      0.00      0.00
                                0.00      0.00      0.00


     Writing all to output data dir ./tmp_relax/Li.save/ :
     XML data file, charge density, pseudopotentials, collected wavefunctions

     init_run     :      0.18s CPU      0.19s WALL (       2 calls)
     electrons    :      7.27s CPU      7.50s WALL (       8 calls)
     update_pot   :      0.03s CPU      0.03s WALL (       6 calls)
     forces       :      0.09s CPU      0.09s WALL (       8 calls)
     stress       :      0.42s CPU      0.42s WALL (       8 calls)

     Called by init_run:
     wfcinit      :      0.08s CPU      0.08s WALL (       2 calls)
     wfcinit:atom :      0.00s CPU      0.00s WALL (     144 calls)
     wfcinit:wfcr :      0.07s CPU      0.08s WALL (     144 calls)
     potinit      :      0.02s CPU      0.02s WALL (       2 calls)
     hinit0       :      0.05s CPU      0.05s WALL (       2 calls)

     Called by electrons:
     c_bands      :      5.89s CPU      6.08s WALL (      54 calls)
     sum_band     :      1.08s CPU      1.11s WALL (      54 calls)
     v_of_rho     :      0.21s CPU      0.21s WALL (      56 calls)
     v_h          :      0.01s CPU      0.01s WALL (      56 calls)
     v_xc         :      0.19s CPU      0.19s WALL (      56 calls)
     newd         :      0.10s CPU      0.10s WALL (      56 calls)
     mix_rho      :      0.02s CPU      0.02s WALL (      54 calls)

     Called by c_bands:
     init_us_2    :      0.17s CPU      0.18s WALL (    9072 calls)
     cegterg      :      5.72s CPU      5.89s WALL (    3888 calls)

     Called by sum_band:
     sum_band:wei :      0.01s CPU      0.01s WALL (      54 calls)
     sum_band:loo :      0.95s CPU      0.98s WALL (      54 calls)
     sum_band:buf :      0.01s CPU      0.01s WALL (    3888 calls)
     sum_band:ini :      0.07s CPU      0.08s WALL (    3888 calls)
     sum_band:cal :      0.08s CPU      0.09s WALL (    3888 calls)
     sum_band:bec :      0.00s CPU      0.00s WALL (    3888 calls)
     addusdens    :      0.10s CPU      0.10s WALL (      54 calls)
                                        0.00s GPU  (      54 calls)
     addusd:skk   :      0.00s CPU      0.00s WALL (      54 calls)
                                        0.00s GPU  (      54 calls)

     Called by *egterg:
     cdiaghg      :      0.25s CPU      0.25s WALL (   13610 calls)
     cegterg:over :      0.39s CPU      0.39s WALL (   10586 calls)
     cegterg:upda :      0.15s CPU      0.15s WALL (   10586 calls)
     cegterg:last :      0.17s CPU      0.17s WALL (    7577 calls)
     h_psi        :      4.43s CPU      4.56s WALL (   14618 calls)
     s_psi        :      0.11s CPU      0.12s WALL (   14618 calls)
     g_psi        :      0.02s CPU      0.02s WALL (   10586 calls)

     Called by h_psi:
     h_psi:calbec :      0.25s CPU      0.26s WALL (   14618 calls)
     vloc_psi     :      4.03s CPU      4.13s WALL (   14618 calls)
                                        0.00s GPU  (   14618 calls)
     add_vuspsi   :      0.14s CPU      0.14s WALL (   14618 calls)

     General routines
     calbec       :      0.55s CPU      0.56s WALL (   28298 calls)
     fft          :      0.14s CPU      0.14s WALL (     788 calls)
     ffts         :      0.01s CPU      0.01s WALL (     110 calls)
     fftw         :      4.27s CPU      4.36s WALL (  148724 calls)
     interpolate  :      0.02s CPU      0.02s WALL (      56 calls)

     Parallel routines

     PWSCF        :      8.06s CPU      8.32s WALL


   This run was terminated on:  13: 3:56  30Aug2026            

=------------------------------------------------------------------------------=
   JOB DONE.
=------------------------------------------------------------------------------=
