
     Program PWSCF v.7.5 starts on 30Aug2026 at 13: 9:33 

     This program is part of the open-source Quantum ESPRESSO suite
     for quantum simulation of materials; please cite
         "P. Giannozzi et al., J. Phys.:Condens. Matter 21 395502 (2009);
         "P. Giannozzi et al., J. Phys.:Condens. Matter 29 465901 (2017);
         "P. Giannozzi et al., J. Chem. Phys. 152 154105 (2020);
          URL http://www.quantum-espresso.org", 
     in publications or presentations arising from this work. More details at
     http://www.quantum-espresso.org/quote

     Parallel version (MPI), running on     4 processors

     MPI processes distributed on     1 nodes
     0 MiB available memory on the printing compute node when the environment starts

     Reading input from Li_k14.in

     Current dimensions of program PWSCF are:
     Max number of different atomic species (ntypx) = 10
     Max number of k-points (npk) =  40000
     Max angular momentum in pseudopotentials (lmaxx) =  4
     Message from routine setup:
     using ibrav=0 with symmetry is DISCOURAGED, use correct ibrav instead

     R & G space division:  proc/nbgrp/npool/nimage =       4
     Subspace diagonalization in iterative solution of the eigenvalue problem:
     a serial algorithm will be used


     Parallelization info
     --------------------
     sticks:   dense  smooth     PW     G-vecs:    dense   smooth      PW
     Min         317     164     51                 7224     2707     466
     Max         319     165     52                 7225     2710     467
     Sum        1273     657    205                28897    10833    1865

     Using Slab Decomposition



     bravais-lattice index     =            0
     lattice parameter (alat)  =       5.6251  a.u.
     unit-cell volume          =     137.0137 (a.u.)^3
     number of atoms/cell      =            1
     number of atomic types    =            1
     number of electrons       =         3.00
     number of Kohn-Sham states=            6
     kinetic-energy cutoff     =      70.0000  Ry
     charge density cutoff     =     540.0000  Ry
     scf convergence threshold =      1.0E-10
     mixing beta               =       0.3000
     number of iterations used =            8  plain     mixing
     Exchange-correlation= PBE
                           (   1   4   3   4   0   0   0)

     celldm(1)=   5.625079  celldm(2)=   0.000000  celldm(3)=   0.000000
     celldm(4)=   0.000000  celldm(5)=   0.000000  celldm(6)=   0.000000

     crystal axes: (cart. coord. in units of alat)
               a(1) = (   0.577350   0.577350   0.577350 )  
               a(2) = (  -0.577350   0.577350   0.577350 )  
               a(3) = (  -0.577350  -0.577350   0.577350 )  

     reciprocal axes: (cart. coord. in units 2 pi/alat)
               b(1) = (  0.866025  0.000000  0.866025 )  
               b(2) = ( -0.866025  0.866025  0.000000 )  
               b(3) = (  0.000000 -0.866025  0.866025 )  


     PseudoPot. # 1 for Li read from file:
     /Users/qiqi/battery/dft/pseudo/Li.us.pbe.z_3.uspp.gbrv.v1.4.upf
     MD5 check sum: ab40f926ca6decaa01295ae7eb5ebb1a
     Pseudo is Ultrasoft, Zval =  3.0
     
     Using radial grid of  751 points,  5 beta functions with: 
                l(1) =   0
                l(2) =   0
                l(3) =   0
                l(4) =   1
                l(5) =   1
     Q(r) pseudized with 0 coefficients 


     atomic species   valence    mass     pseudopotential
     Li                3.00     6.94100     Li( 1.00)

     48 Sym. Ops., with inversion, found



   Cartesian axes

     site n.     atom                  positions (alat units)
         1        Li     tau(   1) = (   0.0000000   0.0000000   0.0000000  )

     number of k points=   104  Marzari-Vanderbilt smearing, width (Ry)=  0.0100

     Number of k-points >= 100: set verbosity='high' to print them.

     Dense  grid:    28897 G-vectors     FFT dimensions: (  45,  45,  45)

     Smooth grid:    10833 G-vectors     FFT dimensions: (  30,  30,  30)

     Estimated max dynamical RAM per process >      14.58 MB

     Estimated total dynamical RAM >      58.30 MB

     Initial potential from superposition of free atoms

     starting charge       2.5493, renormalised to       3.0000
     Starting wfcs are    5 randomized atomic wfcs +    1 random wfcs

     total cpu time spent up to now is        0.1 secs

     Self-consistent Calculation

     iteration #  1     ecut=    70.00 Ry     beta= 0.30
     Davidson diagonalization with overlap
     ethr =  1.00E-02,  avg # of iterations =  6.7

     total cpu time spent up to now is        0.5 secs

     total energy              =     -14.51957269 Ry
     estimated scf accuracy    <       0.16158567 Ry

     iteration #  2     ecut=    70.00 Ry     beta= 0.30
     Davidson diagonalization with overlap
     ethr =  5.39E-03,  avg # of iterations =  1.0

     total cpu time spent up to now is        0.6 secs

     total energy              =     -14.46489766 Ry
     estimated scf accuracy    <       0.07206005 Ry

     iteration #  3     ecut=    70.00 Ry     beta= 0.30
     Davidson diagonalization with overlap
     ethr =  2.40E-03,  avg # of iterations =  1.1

     total cpu time spent up to now is        0.8 secs

     total energy              =     -14.47131772 Ry
     estimated scf accuracy    <       0.00021258 Ry

     iteration #  4     ecut=    70.00 Ry     beta= 0.30
     Davidson diagonalization with overlap
     c_bands:  1 eigenvalues not converged
     ethr =  7.09E-06,  avg # of iterations =  7.9

     total cpu time spent up to now is        1.2 secs

     total energy              =     -14.47195103 Ry
     estimated scf accuracy    <       0.00004618 Ry

     iteration #  5     ecut=    70.00 Ry     beta= 0.30
     Davidson diagonalization with overlap
     c_bands:  1 eigenvalues not converged
     ethr =  1.54E-06,  avg # of iterations =  2.5

     total cpu time spent up to now is        1.4 secs

     total energy              =     -14.47195961 Ry
     estimated scf accuracy    <       0.00000045 Ry

     iteration #  6     ecut=    70.00 Ry     beta= 0.30
     Davidson diagonalization with overlap
     ethr =  1.51E-08,  avg # of iterations =  3.4

     total cpu time spent up to now is        1.6 secs

     total energy              =     -14.47195979 Ry
     estimated scf accuracy    <       0.00000121 Ry

     iteration #  7     ecut=    70.00 Ry     beta= 0.30
     Davidson diagonalization with overlap
     ethr =  1.51E-08,  avg # of iterations =  2.0

     total cpu time spent up to now is        1.8 secs

     total energy              =     -14.47195991 Ry
     estimated scf accuracy    <       0.00000007 Ry

     iteration #  8     ecut=    70.00 Ry     beta= 0.30
     Davidson diagonalization with overlap
     ethr =  2.35E-09,  avg # of iterations =  1.1

     total cpu time spent up to now is        2.0 secs

     total energy              =     -14.47195990 Ry
     estimated scf accuracy    <       0.00000003 Ry

     iteration #  9     ecut=    70.00 Ry     beta= 0.30
     Davidson diagonalization with overlap
     ethr =  9.56E-10,  avg # of iterations =  1.9

     total cpu time spent up to now is        2.2 secs

     total energy              =     -14.47195990 Ry
     estimated scf accuracy    <          7.5E-09 Ry

     iteration # 10     ecut=    70.00 Ry     beta= 0.30
     Davidson diagonalization with overlap
     ethr =  2.49E-10,  avg # of iterations =  1.0

     total cpu time spent up to now is        2.3 secs

     End of self-consistent calculation

     Number of k-points >= 100: set verbosity='high' to print the bands.

     the Fermi energy is     0.9266 ev

!    total energy              =     -14.47195990 Ry
     estimated scf accuracy    <          6.4E-12 Ry
     smearing contrib. (-TS)   =      -0.00005929 Ry
     internal energy E=F+TS    =     -14.47190061 Ry

     The total energy is F=E-TS. E is the sum of the following terms:
     one-electron contribution =      -9.71501676 Ry
     hartree contribution      =       3.66265354 Ry
     xc contribution           =      -3.37693814 Ry
     ewald contribution        =      -5.04259925 Ry

     convergence has been achieved in  10 iterations

     Writing all to output data dir ./tmp_k14/Li_k14.save/ :
     XML data file, charge density, pseudopotentials, collected wavefunctions

     init_run     :      0.11s CPU      0.12s WALL (       1 calls)
     electrons    :      2.13s CPU      2.18s WALL (       1 calls)

     Called by init_run:
     wfcinit      :      0.06s CPU      0.06s WALL (       1 calls)
     potinit      :      0.01s CPU      0.01s WALL (       1 calls)
     hinit0       :      0.02s CPU      0.02s WALL (       1 calls)

     Called by electrons:
     c_bands      :      1.75s CPU      1.80s WALL (      10 calls)
     sum_band     :      0.31s CPU      0.32s WALL (      10 calls)
     v_of_rho     :      0.04s CPU      0.04s WALL (      11 calls)
     newd         :      0.02s CPU      0.02s WALL (      11 calls)
     mix_rho      :      0.00s CPU      0.00s WALL (      10 calls)

     Called by c_bands:
     init_us_2    :      0.04s CPU      0.04s WALL (    2184 calls)
     cegterg      :      1.71s CPU      1.76s WALL (    1040 calls)

     Called by *egterg:
     cdiaghg      :      0.07s CPU      0.07s WALL (    4007 calls)
     h_psi        :      1.39s CPU      1.42s WALL (    4111 calls)
     s_psi        :      0.03s CPU      0.03s WALL (    4111 calls)
     g_psi        :      0.01s CPU      0.01s WALL (    2967 calls)

     Called by h_psi:
     h_psi:calbec :      0.07s CPU      0.07s WALL (    4111 calls)
     vloc_psi     :      1.29s CPU      1.31s WALL (    4111 calls)
                                        0.00s GPU  (    4111 calls)
     add_vuspsi   :      0.03s CPU      0.03s WALL (    4111 calls)

     General routines
     calbec       :      0.09s CPU      0.09s WALL (    5151 calls)
     fft          :      0.03s CPU      0.03s WALL (     140 calls)
     ffts         :      0.01s CPU      0.01s WALL (      21 calls)
     fftw         :      1.39s CPU      1.42s WALL (   40438 calls)
     interpolate  :      0.01s CPU      0.01s WALL (      11 calls)

     Parallel routines

     PWSCF        :      2.27s CPU      2.34s WALL


   This run was terminated on:  13: 9:36  30Aug2026            

=------------------------------------------------------------------------------=
   JOB DONE.
=------------------------------------------------------------------------------=
